time,avg_hydro,avg_vonmises,disp_x,disp_y,dt,lps_eff_creep_strain,max_hydro,max_vonmises,min_hydro,min_vonmises,porosity
0.01,2378469.3382451,4877694.3744897,-4.2876038943451e-07,1e-06,0.005,4.6568910921809e-07,2378469.3382863,4877694.374548,2378469.3382227,4877694.3744389,0.10000004995476
0.02,4738614.4968785,9710251.9067053,-8.6032059599045e-07,2e-06,0.005,5.155828608015e-06,4738614.4972565,9710251.9075319,4738614.4965139,9710251.9061786,0.10000055230601
0.03,7046221.5327515,14412743.023343,-1.3008929577276e-06,3e-06,0.005,2.2484306178256e-05,7046221.5334424,14412743.024927,7046221.5320893,14412743.022251,0.10000240418084
0.04,9251569.2819954,18862957.957139,-1.7595342134491e-06,4e-06,0.005,6.4596001914736e-05,9251569.2825659,18862957.958018,9251569.2814402,18862957.955463,0.10000689386172
0.05,11297559.616333,22923443.426372,-2.2466943172805e-06,5e-06,0.005,0.00014523990225316,11297559.617092,22923443.428365,11297559.615261,22923443.42248,0.10001547473793
