time,avg_hydro,avg_vonmises,creep_timestep,disp_x,disp_y,dt,lps_eff_creep_strain,max_hydro,max_vonmises,min_hydro,min_vonmises,num_lin,num_nonlin,porosity,volume
0.01,-2376427.3331694,4872077.8440738,0.87949921195098,4.2965318638556e-07,-1e-06,0.01,1.1370105829935e-06,-2376427.2036751,4872077.9424988,-2376427.4220155,4872077.6157203,59,3,0.099999864921942,3.99885887671e-06
0.02,-4724480.3604619,9673007.1623707,0.1246304655692,8.649894588843e-07,-2e-06,0.01,9.1607309086659e-06,-4724480.3601795,9673007.1627833,-4724480.360585,9673007.1622286,82,4,0.099998954962494,3.9977282489388e-06
0.03,-6992258.9353439,14274509.147057,0.037302941845802,1.3155164657594e-06,-3e-06,0.01,3.5968268072959e-05,-6992258.9350533,14274509.147411,-6992258.9354684,14274509.146875,81,4,0.099995938665423,3.9966270863821e-06
0.04,-9109416.6801822,18505620.595253,0.016234575309869,1.7942736012681e-06,-4e-06,0.01,9.7565198128304e-05,-9109416.6797286,18505620.595746,-9109416.6803962,18505620.594751,86,4,0.099989076263696,3.9955813701081e-06
0.05,-11000370.734398,22188896.028478,0.0088348880988253,2.3155126989386e-06,-5e-06,0.01,0.00021075282287462,-11000370.731201,22188896.035049,-11000370.737535,22188896.014605,87,4,0.099976601334635,3.9946194478345e-06
0.058834888098825,-12465294.401134,24955375.589082,0.0060417760093957,2.8146676769225e-06,-5.8834888098825e-06,0.0088348880988253,0.00035698280684249,-12465294.397775,24955375.592767,-12465294.404241,24955375.5782,87,4,0.099960490123558,3.993845797668e-06
0.064876664108221,-13394528.797472,26681152.193145,0.0052100096592396,3.1692845030662e-06,-6.4876664108221e-06,0.0060417760093957,0.0004729475823929,-13394528.796886,26681152.194153,-13394528.797755,26681152.192699,83,4,0.099947462697496,3.9933426749238e-06
0.070086673767461,-14128304.842736,28014975.262242,0.0045376765152769,3.4876184247541e-06,-7.0086673767461e-06,0.0052100096592396,0.00058776426484451,-14128304.823161,28014975.299493,-14128304.868999,28014975.208307,62,3,0.099934477859984,3.99293345854e-06
0.074624350282737,-14718561.939338,29066945.212523,0.0041029675148342,3.7739122915974e-06,-7.4624350282737e-06,0.0045376765152769,0.00069835925474173,-14718561.934159,29066945.220384,-14718561.944517,29066945.19863,59,3,0.099921886645139,3.9925947919501e-06
0.078727317797572,-15212586.86971,29930077.71289,0.0037801695360446,4.0401386672789e-06,-7.8727317797572e-06,0.0041029675148342,0.0008068985007615,-15212586.867583,29930077.715421,-15212586.870619,29930077.710021,60,3,0.099909464448752,3.9923030068466e-06
0.082507487333616,-15635117.508616,30653892.481797,0.0035342401623221,4.2914749008534e-06,-8.2507487333616e-06,0.0037801695360446,0.00091385698010811,-15635117.507095,30653892.483232,-15635117.509284,30653892.479851,61,3,0.099897166655976,3.9920460444537e-06
0.086041727495938,-16002668.816907,31271249.957549,0.0033400891981884,4.5315668850073e-06,-8.6041727495938e-06,0.0035342401623221,0.001019669727927,-16002668.815207,31271249.959037,-16002668.818578,31271249.95665,60,3,0.099884950611748,3.9918157978866e-06
0.089381816694127,-16326503.695587,31804567.098465,0.0031830987200117,4.7628449676432e-06,-8.9381816694127e-06,0.0033400891981884,0.0011246017294193,-16326503.694219,31804567.09992,-16326503.696475,31804567.09738,59,3,0.099872791007457,3.9916067554228e-06
0.092564915414138,-16614725.083883,32269946.503544,0.0030536505056318,4.9870499544116e-06,-9.2564915414138e-06,0.0031830987200117,0.0012288408593559,-16614725.082683,32269946.505006,-16614725.084574,32269946.502288,60,3,0.099860670158949,3.9914149542401e-06
0.09561856591977,-16873365.22086,32679357.269772,0.0029452250054881,5.2054673257692e-06,-9.561856591977e-06,0.0030536505056318,0.0013325222588573,-16873365.219701,32679357.271215,-16873365.221544,32679357.268671,60,3,0.099848575621929,3.9912374475354e-06
0.098563790925258,-17107046.269535,33041953.090802,0.0028532257429586,5.4190751136979e-06,-9.8563790925258e-06,0.0029452250054881,0.0014357466536117,-17107046.268407,33041953.09224,-17107046.270208,33041953.089807,61,3,0.099836498346207,3.9910719795836e-06
0.10141701666822,-17319393.750759,33364898.075564,0.0027743152435049,5.6286350376809e-06,-1.0141701666822e-05,0.0028532257429586,0.00153859097703,-17319393.749636,33364898.077058,-17319393.75142,33364898.074588,61,3,0.09982443161443,3.9909167828043e-06
0.10419133191172,-17513307.542621,33653908.061504,0.0027060079174475,5.8347521115341e-06,-1.0419133191172e-05,0.0027743152435049,0.0016411152610314,-17513307.541585,33653908.062858,-17513307.54325,33653908.060609,63,3,0.099812370354466,3.9907704447812e-06
0.10689733982917,-17691145.729896,33913617.914266,0.0026464123448312,6.0379148879106e-06,-1.0689733982917e-05,0.0027060079174475,0.0017433671992717,-17691145.728909,33913617.915558,-17691145.730504,33913617.913422,63,3,0.099800310685657,3.9906318181059e-06
0.109543752174,-17854853.114326,34147838.293262,0.0025940622489473,6.2385234773801e-06,-1.09543752174e-05,0.0026464123448312,0.001845385273239,-17854853.113384,34147838.294491,-17854853.114912,34147838.292466,63,3,0.099788249609089,3.9904999573929e-06
0.11213781442295,-18006053.362364,34359739.773165,0.0025478023936168,6.4369095614313e-06,-1.1213781442295e-05,0.0025940622489473,0.0019472009499405,-18006053.361466,34359739.774332,-18006053.36293,34359739.772415,63,3,0.099776184790698,3.9903740741412e-06
0.11468561681656,-18146116.556371,34551987.820939,0.0025067095744268,6.6333510099533e-06,-1.1468561681656e-05,0.0025478023936168,0.0020488402630386,-18146116.555515,34551987.822047,-18146116.556918,34551987.82023,63,3,0.099764114405892,3.9902535036613e-06
0.11719232639099,-18276209.68251,34726843.675654,0.0024700366780918,6.8280827684138e-06,-1.1719232639099e-05,0.0025067095744268,0.0021503249736065,-18276209.681693,34726843.676706,-18276209.683037,34726843.674985,63,3,0.099752037026,3.9901376803681e-06
0.11966236306908,-18397335.015674,34886241.041108,0.0024371722857921,7.0213051077812e-06,-1.1966236306908e-05,0.0024700366780918,0.0022516734376358,-18397335.014895,34886241.042107,-18397335.016184,34886241.040475,63,3,0.099739951533801,3.9900261190055e-06
0.12209953535488,-18510359.74951,35031845.281134,0.0024076109837903,7.213189972696e-06,-1.2209953535488e-05,0.0024371722857921,0.0023529012647872,-18510359.748767,35031845.282082,-18510359.750001,35031845.280536,63,3,0.099727857059709,3.9899184001599e-06
0.12450714633867,-18616039.181614,35165099.733833,0.0023809311962203,7.4038859338412e-06,-1.2450714633867e-05,0.0024076109837903,0.0024540218258101,-18616039.180905,35165099.734734,-18616039.182089,35165099.733268,63,3,0.099715752932862,3.9898141589289e-06
0.12688807753489,-18715035.079278,35287262.393117,0.0023567783967818,7.593522099513e-06,-1.2688807753489e-05,0.0023809311962203,0.0025550466484624,-18715035.0786,35287262.393973,-18715035.079736,35287262.392582,63,3,0.099703638643168,3.9897130759499e-06
0.12924485593167,-18807930.389837,35399435.284007,0.0023348522287583,7.7822112399163e-06,-1.2924485593167e-05,0.0023567783967818,0.002655985730055,-18807930.38919,35399435.28482,-18807930.39028,35399435.283499,63,3,0.099691513811514,3.9896148702164e-06
0.13157970816043,-18895241.142565,35502588.224617,0.0023148965064056,7.9700523081908e-06,-1.3157970816043e-05,0.0023348522287583,0.0027568477868165,-18895241.141947,35502588.225391,-18895241.142994,35502588.224136,63,3,0.099679378166128,3.9895192932685e-06
0.13389460466683,-18977426.167478,35597578.224651,0.0022966913689681,8.1571324936521e-06,-1.3389460466683e-05,0.0023148965064056,0.0028576404547917,-18977426.166888,35597578.225387,-18977426.167892,35597578.224195,63,3,0.099667231523657,3.9894261244508e-06
0.1361912960358,-19054895.098767,35685165.455422,0.0022800470625312,8.3435289083699e-06,-1.361912960358e-05,0.0022966913689681,0.0029583704531444,-19054895.098202,35685165.456122,-19054895.099167,35685165.45499,63,3,0.099655073773881,3.9893351670079e-06
0.13847134309833,-19128015.017072,35766026.499354,0.0022647989667207,8.5293099834593e-06,-1.3847134309833e-05,0.0022800470625312,0.0030590437179957,-19128015.016533,35766026.50002,-19128015.017459,35766026.498943,63,3,0.099642904867267,3.9892462448463e-06
0.14073614206505,-19197116.001798,35840765.421019,0.0022508035832256,8.714536633435e-06,-1.4073614206505e-05,0.0022647989667207,0.0031596655129497,-19197116.001282,35840765.421654,-19197116.002172,35840765.420629,63,3,0.099630724804764,3.9891591998272e-06
0.14298694564828,-19262495.803218,35909923.07904,0.0022379352746105,8.8992632336718e-06,-1.4298694564828e-05,0.0022508035832256,0.0032602405210114,-19262495.802725,35909923.079646,-19262495.80358,35909923.07867,63,3,0.09961853362938,3.9890738894908e-06
0.14522488092289,-19324423.798243,35973985.006319,0.0022260835936227,9.0835384460661e-06,-1.4522488092289e-05,0.0022379352746105,0.0033607729215318,-19324423.797772,35973985.006898,-19324423.798594,35973985.005967,63,3,0.099606331419181,3.9889901851286e-06
0.14745096451651,-19383144.358898,36033388.116598,0.0022151510810938,9.2674059204998e-06,-1.4745096451651e-05,0.0022260835936227,0.0034612664550108,-19383144.358448,36033388.11715,-19383144.359238,36033388.116263,63,3,0.099594118281449,3.9889079701435e-06
0.1496661155976,-19438879.736089,36088526.442308,0.002205051438585,9.4509048939847e-06,-1.496661155976e-05,0.0022151510810938,0.0035617244779856,-19438879.735657,36088526.442835,-19438879.736419,36088526.441989,63,3,0.09958189434778,3.9888271386459e-06
0.15187116703619,-19491832.540714,36139756.067801,0.0021957080028953,9.6340707049752e-06,-1.5187116703619e-05,0.002205051438585,0.0036621500097675,-19491832.540301,36139756.068305,-19491832.541033,36139756.067498,63,3,0.099569659769939,3.9887475942465e-06
0.15406687503908,-19542187.888346,36187399.390252,0.002187052465383,9.8169352369166e-06,-1.5406687503908e-05,0.0021957080028953,0.0037625457724374,-19542187.887951,36187399.390733,-19542187.888654,36187399.389963,63,3,0.099557414716362,3.9886692490125e-06
0.15625392750447,-19590115.26119,36231748.815626,0.0021790237911139,9.9995273024341e-06,-1.5625392750447e-05,0.002187052465383,0.0038629142252294,-19590115.260811,36231748.816086,-19590115.261488,36231748.81535,63,3,0.099545159369178,3.9885920225625e-06
0.15843295129558,-19635770.131244,36273069.97747,0.0021715673020856,1.0181872977459e-05,-1.5843295129558e-05,0.0021790237911139,0.0039632575942221,-19635770.130881,36273069.977909,-19635770.131532,36273069.977206,63,3,0.099532893921665,3.9885158412772e-06
0.16060451859767,-19679295.38072,36311604.550641,0.0021646338959584,1.036399589293e-05,-1.6060451859767e-05,0.0021715673020856,0.0040635778980802,-19679295.380372,36311604.551062,-19679295.380999,36311604.550391,63,3,0.099520618576078,3.9884406376091e-06
0.16276915249363,-19720822.549558,36347572.719576,0.0021581793772949,1.0545917490355e-05,-1.6276915249363e-05,0.0021646338959584,0.0041638769704603,-19720822.549224,36347572.719981,-19720822.549828,36347572.719337,63,3,0.099508333541787,3.9883663494767e-06
0.16492733187092,-19760472.934799,36381175.350645,0.0021521638826876,1.0727657246471e-05,-1.6492733187092e-05,0.0021581793772949,0.0042641564795828,-19760472.93448,36381175.351033,-19760472.935062,36381175.350416,63,3,0.099496039033673,3.98829291973e-06
0.16707949575361,-19798358.562548,36412595.909955,0.0021465513846277,1.0909232871346e-05,-1.6707949575361e-05,0.0021521638826876,0.0043644179453873,-19798358.562242,36412595.910326,-19798358.562802,36412595.909736,63,3,0.099483735270746,3.9882202956792e-06
0.16922604713824,-19834583.049849,36442002.161348,0.0021413092617037,1.109066048359e-05,-1.6922604713824e-05,0.0021465513846277,0.0044646627546175,-19834583.049555,36442002.161704,-19834583.050095,36442002.161139,63,3,0.099471422474958,3.9881484286761e-06
0.17136735639994,-19869242.371148,36469547.673855,0.0021364079249314,1.1271954765729e-05,-1.7136735639994e-05,0.0021413092617037,0.0045648921741268,-19869242.370867,36469547.674197,-19869242.371387,36469547.673656,63,3,0.099459100870175,3.9880772737424e-06
0.17350376432487,-19902425.541739,36495373.163415,0.0021318204917764,1.1453129102364e-05,-1.7350376432487e-05,0.0021364079249314,0.0046651073626469,-19902425.54147,36495373.163743,-19902425.54197,36495373.163223,63,3,0.099446770681288,3.9880067892384e-06
0.17563558481665,-19934215.228728,36519607.689928,0.0021275225008669,1.1634195703306e-05,-1.7563558481665e-05,0.0021318204917764,0.0047653093812262,-19934215.22847,36519607.690244,-19934215.228952,36519607.689745,63,3,0.099434432133445,3.9879369365666e-06
0.17776310731751,-19964688.298511,36542369.727673,0.0021234916615486,1.1815165713579e-05,-1.7776310731751e-05,0.0021275225008669,0.0048654992025107,-19964688.298263,36542369.727977,-19964688.298727,36542369.727498,63,3,0.099422085451391,3.9878676799065e-06
0.17988659897906,-19993916.308494,36563768.124483,0.0021197076333894,1.1996049311894e-05,-1.7988659897906e-05,0.0021234916615486,0.0049656777190162,-19993916.308256,36563768.124775,-19993916.308704,36563768.124316,63,3,0.099409730858896,3.9877989859767e-06
0.18200630661245,-20021965.949679,36583902.962977,0.0021161518315148,1.2176855798992e-05,-1.8200630661245e-05,0.0021197076333894,0.0050658457505187,-20021965.949452,36583902.963258,-20021965.949884,36583902.962816,63,3,0.09939736857826,3.9877308238204e-06
0.18412245844397,-20048899.445832,36602866.335288,0.0021128072542934,1.2357593677031e-05,-1.8412245844397e-05,0.0021161518315148,0.0051660040506696,-20048899.445614,36602866.335559,-20048899.446029,36602866.335134,63,3,0.099384998829889,3.9876631646124e-06
0.18623526569826,-20074774.914194,36620743.041204,0.0021096583304348,1.2538270721065e-05,-1.8623526569826e-05,0.0021128072542934,0.0052661533129301,-20074774.913984,36620743.041464,-20074774.914385,36620743.041056,63,3,0.099372621831934,3.9875959814845e-06
0.1883449240287,-20099646.692047,36637611.218343,0.0021066907829754,1.2718894043505e-05,-1.883449240287e-05,0.0021096583304348,0.0053662941759056,-20099646.691846,36637611.218594,-20099646.692233,36637611.2182,63,3,0.099360237799975,3.987529249368e-06
0.19045161481167,-20123565.632872,36653542.911867,0.0021038915080339,1.2899470152336e-05,-1.9045161481167e-05,0.0021066907829754,0.005466427228147,-20123565.63268,36653542.91211,-20123565.633052,36653542.91173,63,3,0.099347846946762,3.9874629448502e-06
0.1925555063197,-20146579.375383,36668604.590294,0.0021012484664837,1.3080005003779e-05,-1.925555063197e-05,0.0021038915080339,0.0055665530124825,-20146579.375198,36668604.590527,-20146579.375558,36668604.590162,63,3,0.099335449481987,3.9873970460449e-06
0.19465675478619,-20168732.588302,36682857.613157,0.0020987505869785,1.3260504049994e-05,-1.9465675478619e-05,0.0021012484664837,0.0056666720299302,-20168732.588125,36682857.613382,-20168732.588472,36682857.61303,63,3,0.099323045612097,3.9873315324742e-06
0.19675550537317,-20190067.193407,36696358.655562,0.0020963876789727,1.344097228234e-05,-1.9675550537317e-05,0.0020987505869785,0.0057667847432374,-20190067.193237,36696358.65578,-20190067.193571,36696358.655441,63,3,0.099310635540136,3.9872663849606e-06
0.19885189305214,-20210622.569051,36709160.094096,0.0020941503545605,1.3621414270655e-05,-1.9885189305214e-05,0.0020963876789727,0.0058668915800886,-20210622.568889,36709160.094306,-20210622.569211,36709160.093979,63,3,0.099298219465621,3.9872015855295e-06
0.2009460434067,-20230435.736163,36721310.357995,0.0020920299581192,1.3801834198969e-05,-2.009460434067e-05,0.0020941503545605,0.0059669929360144,-20230435.736008,36721310.358198,-20230435.736318,36721310.357882,63,3,0.099285797584434,3.9871371173191e-06
0.20303807336482,-20249541.52839,36732854.24909,0.0020900185028695,1.3982235897999e-05,-2.0303807336482e-05,0.0020920299581192,0.0060670891770352,-20249541.528241,36732854.249286,-20249541.528539,36732854.248982,63,3,0.09927337008874,3.9870729644992e-06
0.20512809186769,-20267972.747998,36743833.233565,0.0020881086135873,1.4162622874755e-05,-2.0512809186769e-05,0.0020900185028695,0.0061671806420657,-20267972.747855,36743833.233755,-20267972.748143,36743833.23346,63,3,0.099260937166926,3.9870091121953e-06
0.20721620048128,-20285760.308854,36754285.708299,0.0020862934747889,1.4342998339526e-05,-2.0721620048128e-05,0.0020881086135873,0.0062672676451035,-20285760.308717,36754285.708483,-20285760.308994,36754285.708198,63,3,0.099248499003557,3.9869455464208e-06
0.20930249395606,-20302933.36772,36764247.244232,0.0020845667838016,1.4523365230517e-05,-2.0930249395606e-05,0.0020862934747889,0.006367350477225,-20302933.367588,36764247.24441,-20302933.367856,36764247.244135,63,3,0.09923605577934,3.9868822540134e-06
0.21138706073987,-20319519.444944,36773750.808924,0.0020829227082002,1.4703726236342e-05,-2.1138706073987e-05,0.0020845667838016,0.0064674294084068,-20319519.444818,36773750.809096,-20319519.445077,36773750.80883,63,3,0.099223607671111,3.9868192225776e-06
0.21346998344807,-20335544.535537,36782826.970254,0.0020813558471584,1.4884083816584e-05,-2.1346998344807e-05,0.0020829227082002,0.0065675046891886,-20335544.535415,36782826.97042,-20335544.535665,36782826.970163,63,3,0.099211154851827,3.9867564404309e-06
0.21555133929523,-20351033.211486,36791504.083017,0.0020798611963023,1.5064440220609e-05,-2.1555133929522e-05,0.0020813558471584,0.0066675765521943,-20351033.21137,36791504.083179,-20351033.211612,36791504.08293,63,3,0.099198697490574,3.9866938965556e-06
0.21763120049153,-20366008.716106,36799808.459974,0.0020784341157241,1.5244797504775e-05,-2.1763120049153e-05,0.0020798611963023,0.0067676452135238,-20366008.715994,36799808.460131,-20366008.716226,36799808.45989,63,3,0.099186235752577,3.986631580553e-06
0.21970963460725,-20380493.051106,36807764.528762,0.0020770703008281,1.5425157548198e-05,-2.1970963460725e-05,0.0020784341157241,0.0068677108740272,-20380493.050999,36807764.528913,-20380493.051223,36807764.528681,63,3,0.099173769799223,3.986569482602e-06
0.22178670490808,-20394507.057058,36815394.97593,0.0020757657557381,1.5605522067204e-05,-2.2178670490808e-05,0.0020770703008281,0.0069677737204736,-20394507.056954,36815394.976077,-20394507.057171,36815394.975851,63,3,0.099161299788091,3.986507593421e-06
0.22386247066382,-20408070.48775,36822720.879253,0.0020745167690123,1.5785892628572e-05,-2.2386247066382e-05,0.0020757657557381,0.0070678339266223,-20408070.487651,36822720.879396,-20408070.48786,36822720.879178,63,3,0.099148825872985,3.9864459042318e-06
0.22593698743283,-20421202.079057,36829761.829336,0.0020733198914471,1.5966270661683e-05,-2.2593698743283e-05,0.0020745167690123,0.0071678916542068,-20421202.078961,36829761.829474,-20421202.079165,36829761.829262,63,3,0.099136348203978,3.9863844067274e-06
0.22801030732428,-20433919.612682,36836536.041449,0.0020721719157688,1.614665746968e-05,-2.2801030732428e-05,0.0020733198914471,0.0072679470538384,-20433919.612589,36836536.041584,-20433919.612786,36836536.041378,63,3,0.099123866927452,3.9863230930413e-06
0.23008247924005,-20446239.975262,36843060.458444,0.0020710698580391,1.6327054239706e-05,-2.3008247924005e-05,0.0020721719157688,0.0073680002658369,-20446239.975172,36843060.458575,-20446239.975362,36843060.458375,63,3,0.099111382186149,3.9862619557195e-06
0.23215354909808,-20458179.213202,36849350.845488,0.0020700109406152,1.6507462052306e-05,-2.3215354909808e-05,0.0020710698580391,0.0074680514209945,-20458179.213116,36849350.845615,-20458179.2133,36849350.845421,63,3,0.099098894119226,3.9862009876947e-06
0.2342235600387,-20469752.583594,36855421.877343,0.0020689925765202,1.6687881890074e-05,-2.342235600387e-05,0.0020700109406152,0.007568100641279,-20469752.583511,36855421.877466,-20469752.583688,36855421.877278,63,3,0.099086402862306,3.9861401822618e-06
0.23629255261522,-20480974.601496,36861287.218794,0.0020680123550967,1.68683146456e-05,-2.3629255261522e-05,0.0020689925765202,0.0076681480404814,-20480974.601416,36861287.218913,-20480974.601587,36861287.218731,63,3,0.099073908547537,3.9860795330555e-06
0.23836056497032,-20491859.083938,36866959.598794,0.0020670680288349,1.7048761128771e-05,-2.3836056497032e-05,0.0020680123550967,0.0077681937248125,-20491859.083862,36866959.598911,-20491859.084028,36866959.598733,63,3,0.099061411303655,3.98601903403e-06
0.24042763299915,-20502419.190829,36872450.878882,0.0020661575012567,1.7229222073493e-05,-2.4042763299915e-05,0.0020670680288349,0.0078682377934529,-20502419.190756,36872450.878995,-20502419.190916,36872450.878823,63,3,0.09904891125604,3.985958679439e-06
0.24249379050041,-20512667.463081,36877772.116291,0.0020652788157802,1.7409698143873e-05,-2.4249379050041e-05,0.0020661575012567,0.0079682803390605,-20512667.46301,36877772.116401,-20512667.463165,36877772.116233,63,3,0.099036408526782,3.9858984638182e-06
0.24455906931619,-20522615.858105,36882933.62223,0.0020644301454669,1.7590189939907e-05,-2.4455906931619e-05,0.0020652788157802,0.0080683214482383,-20522615.858037,36882933.622337,-20522615.858187,36882933.622174,63,3,0.099023903234744,3.9858383819685e-06
0.24662349946166,-20532275.782939,36887945.015705,0.0020636097835794,1.7770698002719e-05,-2.4662349946166e-05,0.0020644301454669,0.0081683612019669,-20532275.782874,36887945.015809,-20532275.783019,36887945.015651,63,3,0.099011395495629,3.9857784289401e-06
0.24868710924524,-20541658.125136,36892815.273245,0.002062816134884,1.7951222819375e-05,-2.4868710924524e-05,0.0020636097835794,0.008268399676004,-20541658.125073,36892815.273346,-20541658.125213,36892815.273193,63,3,0.098998885422039,3.9857186000186e-06
0.25074992538012,-20550773.281612,36897552.774863,0.002062047707628,1.8131764827331e-05,-2.5074992538012e-05,0.002062816134884,0.0083684369412526,-20550773.281552,36897552.774962,-20550773.281686,36897552.774812,63,3,0.098986373123547,3.9856588907108e-06
0.25281197308775,-20559631.18561,36902165.346549,0.0020613031061423,1.8312324418512e-05,-2.5281197308775e-05,0.002062047707628,0.008468473064103,-20559631.185552,36902165.346646,-20559631.185682,36902165.346498,63,3,0.098973858706759,3.9855992967326e-06
0.25487327619389,-20568241.331897,36906660.299579,0.0020605810240113,1.849290194308e-05,-2.5487327619389e-05,0.0020613031061423,0.0085685081067476,-20568241.331841,36906660.299673,-20568241.331967,36906660.299528,63,3,0.098961342275381,3.9855398139969e-06
0.2569338572179,-20576612.80034,36911044.46688,0.0020598802377664,1.8673497712903e-05,-2.569338572179e-05,0.0020605810240113,0.0086685421274729,-20576612.800286,36911044.466972,-20576612.800408,36911044.46683,63,3,0.09894882393028,3.9854804386027e-06
0.25899373745567,-20584754.277981,36915324.236689,0.0020591996010598,1.8854112004747e-05,-2.5899373745567e-05,0.0020598802377664,0.0087685751809303,-20584754.27793,36915324.236779,-20584754.278047,36915324.236639,63,3,0.098936303769558,3.9854211668249e-06
0.26105293705673,-20592674.079713,36919505.583717,0.00205853803928,1.9034745063221e-05,-2.6105293705673e-05,0.0020591996010598,0.0088686073183853,-20592674.079664,36919505.583804,-20592674.079777,36919505.583667,63,3,0.098923781888608,3.9853619951046e-06
0.26311147509601,-20600380.167659,36923594.098008,0.0020578945445693,1.9215397103486e-05,-2.6311147509601e-05,0.00205853803928,0.0089686385879501,-20600380.167612,36923594.098093,-20600380.167721,36923594.09796,63,3,0.098911258380181,3.9853029200401e-06
0.26516936964058,-20607880.169349,36927595.011681,0.0020572681712174,1.9396068313754e-05,-2.6516936964058e-05,0.0020578945445693,0.0090686690347979,-20607880.169305,36927595.011764,-20607880.169409,36927595.011633,63,3,0.098898733334451,3.9852439383785e-06
0.26722663781179,-20615181.394777,36931513.223702,0.0020566580313956,1.9576758857589e-05,-2.6722663781179e-05,0.0020572681712174,0.0091686987013624,-20615181.394734,36931513.223783,-20615181.394835,36931513.223654,63,3,0.098886206839075,3.9851850470079e-06
0.26928329584319,-20622290.852419,36935353.322855,0.002056063291208,1.9757468876028e-05,-2.6928329584319e-05,0.0020566580313956,0.009268727627522,-20622290.852377,36935353.322934,-20622290.852475,36935353.322808,63,3,0.098873678979257,3.9851262429497e-06
0.2713393591344,-20629215.264291,36939119.609036,0.0020554831670317,1.9938198489531e-05,-2.713393591344e-05,0.002056063291208,0.0093687558507713,-20629215.264252,36939119.609114,-20629215.264346,36939119.608989,63,3,0.098861149837808,3.9850675233521e-06
0.27339484230143,-20635961.080092,36942816.11301,0.0020549169221278,2.0118947799788e-05,-2.7339484230143e-05,0.0020554831670317,0.00946878340638,-20635961.080055,36942816.113085,-20635961.080145,36942816.112964,63,3,0.098848619495206,3.9850088854831e-06
0.27544975922356,-20642534.490515,36946446.61473,0.0020543638634946,2.0299716891365e-05,-2.7544975922356e-05,0.0020549169221278,0.0095688103275407,-20642534.490479,36946446.614804,-20642534.490567,36946446.614685,63,3,0.098836088029656,3.984950326725e-06
0.27750412308705,-20648941.439788,36950014.660348,0.0020538233389568,2.048050583324e-05,-2.7750412308705e-05,0.0020543638634946,0.0096688366455055,-20648941.439754,36950014.66042,-20648941.439837,36950014.660303,63,3,0.098823555517148,3.9848918445679e-06
0.27955794642601,-20655187.63747,36953523.577997,0.0020532947344533,2.0661314680206e-05,-2.7955794642601e-05,0.0020538233389568,0.0097688623897135,-20655187.637437,36953523.578067,-20655187.637518,36953523.577953,63,3,0.098811022031513,3.9848334366049e-06
0.28161124116046,-20661278.569571,36956976.492452,0.0020527774715321,2.0842143474162e-05,-2.8161124116046e-05,0.0020532947344533,0.0098688875879094,-20661278.569541,36956976.492521,-20661278.569619,36956976.492409,63,3,0.098798487644482,3.984775100527e-06
0.28366401863199,-20667219.509049,36960376.338742,0.0020522710050141,2.1022992245311e-05,-2.8366401863199e-05,0.0020527774715321,0.0099689122662528,-20667219.50902,36960376.338809,-20667219.509094,36960376.338699,63,3,0.098785952425738,3.9847168341178e-06
0.28571628963701,-20673015.525691,36963725.874793,0.0020517748208299,2.1203861013249e-05,-2.8571628963701e-05,0.0020522710050141,0.010068936449421,-20673015.525663,36963725.874859,-20673015.525735,36963725.874751,63,3,0.098773416442972,3.9846586352496e-06
0.28776806445784,-20678671.495468,36967027.693183,0.0020512884340042,2.1384749787982e-05,-2.8776806445784e-05,0.0020517748208299,0.010168960160703,-20678671.495442,36967027.693248,-20678671.495511,36967027.693142,63,3,0.098760879761934,3.9846005018788e-06
0.28981935289184,-20684192.109356,36970284.232066,0.0020508113867872,2.1565658570849e-05,-2.8981935289184e-05,0.0020512884340042,0.010268983422091,-20684192.10933,36970284.232129,-20684192.109397,36970284.232025,63,3,0.098748342446489,3.9845424320421e-06
0.29187016427863,-20689581.881669,36973497.785325,0.0020503432469112,2.1746587355378e-05,-2.9187016427863e-05,0.0020508113867872,0.010369006254358,-20689581.881643,36973497.785387,-20689581.881709,36973497.785284,63,3,0.098735804558662,3.9844844238526e-06
0.29392050752554,-20694845.157949,36976670.512015,0.002049883605976,2.1927536128074e-05,-2.9392050752554e-05,0.0020503432469112,0.010469028677139,-20694845.157922,36976670.512075,-20694845.157987,36976670.511975,63,3,0.098723266158693,3.9844264754962e-06
0.29597039113152,-20699986.12243,36979804.445152,0.0020494320779386,2.2108504869134e-05,-2.9597039113152e-05,0.002049883605976,0.010569050708999,-20699986.122404,36979804.445211,-20699986.122468,36979804.445113,63,3,0.098710727305083,3.9843685852286e-06
0.29801982320945,-20705008.805094,36982901.499884,0.002048988297712,2.2289493553117e-05,-2.9801982320945e-05,0.0020494320779386,0.010669072367502,-20705008.805068,36982901.499942,-20705008.805131,36982901.499845,63,3,0.098698188054642,3.9843107513715e-06
0.30006881150717,-20709917.088374,36985963.481095,0.0020485519198612,2.2470502149548e-05,-3.0006881150717e-05,0.002048988297712,0.010769093669272,-20709917.088347,36985963.481151,-20709917.088409,36985963.481057,63,3,0.098685648462532,3.9842529723102e-06
0.30211736342703,-20714714.713475,36988992.090495,0.0020481226173832,2.265153062348e-05,-3.0211736342703e-05,0.0020485519198612,0.010869114630051,-20714714.713449,36988992.09055,-20714714.713509,36988992.090457,63,3,0.098673108582321,3.9841952464906e-06
0.30416548604441,-20719405.286408,36991988.933207,0.0020477000805758,2.2832578936006e-05,-3.0416548604441e-05,0.0020481226173832,0.010969135264752,-20719405.286382,36991988.933261,-20719405.286442,36991988.93317,63,3,0.098660568466017,3.9841375724161e-06
0.30621318612499,-20723992.283678,36994955.523912,0.002047284015979,2.3013647044728e-05,-3.0621318612499e-05,0.0020477000805758,0.011069155587509,-20723992.283652,36994955.523964,-20723992.28371,36994955.523875,63,3,0.09864802816412,3.9840799486458e-06
0.30826047014097,-20728479.057705,36997893.292569,0.0020468741453903,2.3194734904192e-05,-3.0826047014097e-05,0.002047284015979,0.011169175611728,-20728479.057678,36997893.29262,-20728479.057736,36997893.292532,63,3,0.098635487725656,3.9840223737915e-06
0.31030734428636,-20732868.841967,37000803.589752,0.0020464702049437,2.3375842466278e-05,-3.1030734428636e-05,0.0020468741453903,0.011269195350126,-20732868.84194,37000803.589803,-20732868.841996,37000803.589716,63,3,0.098622947198226,3.9839648465156e-06
0.3123538144913,-20737164.755876,37003687.691615,0.0020460719442535,2.3556969680564e-05,-3.123538144913e-05,0.0020464702049437,0.011369214814772,-20737164.75585,37003687.691665,-20737164.755905,37003687.69158,63,3,0.09861040662804,3.9839073655291e-06
0.31439988643555,-20741369.809441,37006546.80453,0.0020456791256113,2.3738116494656e-05,-3.1439988643555e-05,0.0020460719442535,0.01146923401713,-20741369.809422,37006546.804568,-20741369.809469,37006546.804496,64,3,0.098597866059959,3.9838499295891e-06
0.31644556556116,-20745486.907668,37009382.069403,0.0020452915232374,2.391928285449e-05,-3.1644556556116e-05,0.0020456791256113,0.011569252968088,-20745486.907651,37009382.069441,-20745486.907695,37009382.06937,64,3,0.098585325537533,3.9837925374976e-06
0.3184908570844,-20749518.854775,37012194.565718,0.0020449089225838,2.4100468704608e-05,-3.184908570844e-05,0.0020452915232374,0.011669271677999,-20749518.854757,37012194.565755,-20749518.854802,37012194.565685,64,3,0.098572785103036,3.9837351880989e-06
0.32053576600699,-20753468.358195,37014985.315285,0.0020445311196795,2.428167398841e-05,-3.2053576600699e-05,0.0020449089225838,0.011769290156704,-20753468.358177,37014985.315322,-20753468.358221,37014985.315254,64,3,0.098560244797507,3.9836778802782e-06
0.32258029712667,-20757338.032378,37017755.285767,0.0020441579205185,2.446289864838e-05,-3.2258029712667e-05,0.0020445311196795,0.011869308413569,-20757338.03236,37017755.285803,-20757338.032403,37017755.285736,64,3,0.098547704660777,3.9836206129599e-06
0.32462445504718,-20761130.402441,37020505.393945,0.0020437891404912,2.4644142626301e-05,-3.2462445504718e-05,0.0020441579205185,0.011969326457505,-20761130.402425,37020505.393981,-20761130.402465,37020505.393914,64,3,0.098535164731513,3.9835633851061e-06
0.32666824418768,-20764847.907622,37023236.508789,0.002043424603848,2.4825405863436e-05,-3.2666824418768e-05,0.0020437891404912,0.012069344297,-20764847.907606,37023236.508824,-20764847.907645,37023236.508758,64,3,0.098522625047245,3.9835061957148e-06
0.32871166879152,-20768492.904588,37025949.454313,0.0020430641431991,2.5006688300709e-05,-3.2871166879152e-05,0.002043424603848,0.012169361940138,-20768492.904572,37025949.454348,-20768492.904611,37025949.454284,64,3,0.098510085644398,3.9834490438188e-06
0.33075473293472,-20772067.670591,37028645.012255,0.0020427075990461,2.5187989878852e-05,-3.3075473293472e-05,0.0020430641431991,0.012269379394625,-20772067.670574,37028645.012289,-20772067.670613,37028645.012226,64,3,0.098497546558328,3.9833919284842e-06
0.33279744053377,-20775574.406474,37031323.924567,0.0020423548193446,2.5369310538554e-05,-3.3279744053377e-05,0.0020427075990461,0.012369396667808,-20775574.406457,37031323.924601,-20775574.406495,37031323.924539,64,3,0.09848500782335,3.9833348488088e-06
0.33483979535311,-20779015.239559,37033986.895757,0.0020420056590909,2.5550650220583e-05,-3.3483979535311e-05,0.0020423548193446,0.012469413766694,-20779015.239542,37033986.895791,-20779015.239579,37033986.89573,64,3,0.098472469472768,3.9832778039214e-06
0.3368818010122,-20782392.226382,37036634.595076,0.0020416599799381,2.5732008865904e-05,-3.368818010122e-05,0.0020420056590909,0.012569430697973,-20782392.226366,37036634.59511,-20782392.226403,37036634.595049,64,3,0.098459931538906,3.9832207929803e-06
0.33892346099214,-20785707.355333,37039267.658554,0.002041317649834,2.5913386415779e-05,-3.3892346099214e-05,0.0020416599799381,0.012669447468027,-20785707.355317,37039267.658587,-20785707.355354,37039267.658527,64,3,0.098447394053131,3.9831638151721e-06
0.34096477864198,-20788962.549161,37041886.690921,0.0020409785426823,2.6094782811862e-05,-3.4096477864198e-05,0.002041317649834,0.012769464082956,-20788962.549146,37041886.690953,-20788962.549181,37041886.690895,64,3,0.09843485704589,3.9831068697108e-06
0.34300575718466,-20792159.667382,37044492.267392,0.0020406425380246,2.6276197996281e-05,-3.4300575718466e-05,0.0020409785426823,0.012869480548586,-20792159.667367,37044492.267424,-20792159.6674,37044492.267366,64,3,0.098422320546727,3.9830499558366e-06
0.34504639972268,-20795300.508582,37047084.935346,0.0020403095207413,2.6457631911711e-05,-3.4504639972268e-05,0.0020406425380246,0.012969496870485,-20795300.508567,37047084.935377,-20795300.508601,37047084.935321,64,3,0.098409784584315,3.9829930728152e-06
0.34708670924342,-20798386.812621,37049665.215898,0.0020399793807715,2.6639084501441e-05,-3.4708670924342e-05,0.0020403095207413,0.01306951305398,-20798386.812606,37049665.215929,-20798386.81264,37049665.215873,64,3,0.098397249186478,3.9829362199365e-06
0.3491266886242,-20801420.262741,37052233.605369,0.0020396520128488,2.6820555709429e-05,-3.491266886242e-05,0.0020399793807715,0.013169529104164,-20801420.262726,37052233.6054,-20801420.26276,37052233.605345,64,3,0.098384714380219,3.9828793965138e-06
0.35116634063704,-20804402.487597,37054790.576666,0.0020393273162536,2.7002045480357e-05,-3.5116634063704e-05,0.0020396520128488,0.013269545025913,-20804402.487582,37054790.576697,-20804402.487615,37054790.576643,64,3,0.098372180191742,3.9828226018832e-06
0.3532056679533,-20807335.063185,37057336.580579,0.0020390051945801,2.7183553759671e-05,-3.532056679533e-05,0.0020393273162536,0.013369560823894,-20807335.06317,37057336.580608,-20807335.063203,37057336.580555,64,3,0.098359646646474,3.9827658354023e-06
0.35524467314788,-20810219.514717,37059872.046985,0.0020386855555178,2.7365080493621e-05,-3.5524467314788e-05,0.0020390051945801,0.013469576502577,-20810219.514702,37059872.047015,-20810219.514735,37059872.046962,64,3,0.098347113769091,3.9827090964501e-06
0.3572833587034,-20813057.318391,37062397.385998,0.0020383683106436,2.7546625629296e-05,-3.572833587034e-05,0.0020386855555178,0.013569592066244,-20813057.318376,37062397.386027,-20813057.318408,37062397.385975,64,3,0.098334581583536,3.9826523844253e-06
0.35932172701404,-20815849.903115,37064912.989026,0.0020380533752296,2.7728189114651e-05,-3.5932172701404e-05,0.0020383683106436,0.013669607518999,-20815849.9031,37064912.989055,-20815849.903131,37064912.989003,64,3,0.098322050113043,3.9825956987465e-06
0.36135978038927,-20818598.652143,37067419.229784,0.0020377406680576,2.790977089853e-05,-3.6135978038927e-05,0.0020380533752296,0.013769622864777,-20818598.652129,37067419.229813,-20818598.652159,37067419.229762,64,3,0.098309519380158,3.9825390388509e-06
0.36339752105733,-20821304.904662,37069916.465228,0.0020374301112498,2.8091370930687e-05,-3.6339752105733e-05,0.0020377406680576,0.013869638107351,-20821304.904648,37069916.465257,-20821304.904678,37069916.465206,64,3,0.098296989406757,3.9824824041939e-06
0.36543495116858,-20823969.957298,37072405.036449,0.0020371216301018,2.82729891618e-05,-3.6543495116858e-05,0.0020374301112498,0.013969653250342,-20823969.957284,37072405.036477,-20823969.957314,37072405.036427,64,3,0.098284460214067,3.9824257942485e-06
0.36747207279868,-20826595.065584,37074885.269494,0.0020368151529348,2.8454625543486e-05,-3.6747207279868e-05,0.0020371216301018,0.014069668297223,-20826595.06557,37074885.269522,-20826595.065601,37074885.269473,64,3,0.098271931822685,3.9823692085043e-06
0.36950888795161,-20829181.445355,37077357.476157,0.0020365106109459,2.8636280028311e-05,-3.6950888795161e-05,0.0020368151529348,0.01416968325133,-20829181.445341,37077357.476185,-20829181.445371,37077357.476136,64,3,0.098259404252596,3.9823126464674e-06
0.37154539856256,-20831730.274093,37079821.954711,0.0020362079380747,2.8817952569791e-05,-3.7154539856256e-05,0.0020365106109459,0.014269698115865,-20831730.274079,37079821.954738,-20831730.274108,37079821.954691,64,3,0.098246877523193,3.9822561076597e-06
0.37358160650063,-20834242.692231,37082278.9906,0.0020359070708734,2.8999643122403e-05,-3.7358160650063e-05,0.0020362079380747,0.014369712893907,-20834242.692217,37082278.990627,-20834242.692246,37082278.99058,64,3,0.098234351653289,3.9821995916181e-06
0.37561751357151,-20836719.804389,37084728.857094,0.0020356079483836,2.9181351641583e-05,-3.7561751357151e-05,0.0020359070708734,0.01446972758841,-20836719.804375,37084728.857121,-20836719.804404,37084728.857075,64,3,0.098221826661141,3.9821430978942e-06
0.37765312151989,-20839162.680579,37087171.815899,0.0020353105120235,2.9363078083727e-05,-3.7765312151989e-05,0.0020356079483836,0.014569742202217,-20839162.680566,37087171.815926,-20839162.680594,37087171.81588,64,3,0.098209302564461,3.9820866260539e-06
0.37968843203191,-20841572.357361,37089608.117734,0.0020350147054779,2.9544822406186e-05,-3.7968843203191e-05,0.0020353105120235,0.014669756738059,-20841572.357347,37089608.117761,-20841572.357376,37089608.117716,64,3,0.098196779380434,3.9820301756765e-06
0.38172344673739,-20843949.838949,37092038.00288,0.0020347204745946,2.9726584567268e-05,-3.8172344673739e-05,0.0020350147054779,0.014769771198565,-20843949.838936,37092038.002907,-20843949.838964,37092038.002862,64,3,0.098184257125736,3.9819737463549e-06
0.38375816721199,-20846296.098286,37094461.70169,0.0020344277672877,2.9908364526224e-05,-3.8375816721199e-05,0.0020347204745946,0.014869785586261,-20846296.098272,37094461.701716,-20846296.098299,37094461.701672,64,3,0.098171735816542,3.9819173376945e-06
0.38579259497927,-20848612.07807,37096879.435074,0.0020341365334446,3.0090162243251e-05,-3.8579259497927e-05,0.0020344277672877,0.014969799903581,-20848612.078056,37096879.435101,-20848612.078083,37096879.435057,64,3,0.098159215468549,3.9818609493131e-06
0.38782673151272,-20850898.691754,37099291.414958,0.0020338467248397,3.0271977679474e-05,-3.8782673151272e-05,0.0020341365334446,0.015069814152865,-20850898.691741,37099291.414984,-20850898.691767,37099291.414941,64,3,0.098146696096985,3.9818045808404e-06
0.38986057823756,-20853156.824502,37101697.844711,0.0020335582950494,3.0453810796945e-05,-3.8986057823756e-05,0.0020338467248397,0.015169828336367,-20853156.824488,37101697.844736,-20853156.824514,37101697.844693,64,3,0.098134177716623,3.9817482319177e-06
0.39189413653261,-20855387.334104,37104098.919556,0.0020332711993766,3.0635661558629e-05,-3.9189413653261e-05,0.0020335582950494,0.015269842456257,-20855387.33409,37104098.919581,-20855387.334116,37104098.919539,64,3,0.098121660341798,3.9816919021973e-06
0.39392740773198,-20857591.05188,37106494.826951,0.0020329853947731,3.081752992839e-05,-3.9392740773198e-05,0.0020332711993766,0.015369856514626,-20857591.051867,37106494.826976,-20857591.051892,37106494.826933,64,3,0.098109143986414,3.9816355913426e-06
0.39596039312676,-20859768.783524,37108885.746956,0.0020327008397707,3.0999415870989e-05,-3.9596039312676e-05,0.0020329853947731,0.015469870513488,-20859768.783511,37108885.746981,-20859768.783536,37108885.746938,64,3,0.098096628663963,3.9815792990271e-06
0.39799309396653,-20861921.309946,37111271.852575,0.0020324174944131,3.118131935206e-05,-3.9799309396653e-05,0.0020327008397707,0.015569884454784,-20861921.309933,37111271.8526,-20861921.309958,37111271.852556,64,3,0.098084114387533,3.9815230249345e-06
0.40002551146094,-20864049.388053,37113653.310079,0.0020321353201931,3.1363240338105e-05,-4.0002551146094e-05,0.0020324174944131,0.015669898340386,-20864049.38804,37113653.310104,-20864049.388065,37113653.310061,64,3,0.098071601169821,3.9814667687582e-06
0.40205764678113,-20866153.751541,37116030.279318,0.0020318542799908,3.1545178796476e-05,-4.0205764678113e-05,0.0020321353201931,0.015769912172096,-20866153.751528,37116030.279342,-20866153.751552,37116030.2793,64,3,0.098059089023145,3.9814105302013e-06
0.40408950106113,-20868235.111617,37118402.914004,0.0020315743380173,3.1727134695367e-05,-4.0408950106113e-05,0.0020318542799908,0.015869925951653,-20868235.111604,37118402.914029,-20868235.111628,37118402.913986,64,3,0.098046577959456,3.9813543089756e-06
0.40612107539914,-20870294.157736,37120771.361995,0.0020312954597595,3.1909108003791e-05,-4.0612107539914e-05,0.0020315743380173,0.015969939680737,-20870294.157724,37120771.36202,-20870294.157748,37120771.361977,64,3,0.098034067990345,3.981298104802e-06
0.4081523708589,-20872331.558284,37123135.765553,0.0020310176119262,3.2091098691575e-05,-4.081523708589e-05,0.0020312954597595,0.016069953360964,-20872331.558271,37123135.765577,-20872331.558295,37123135.765535,64,3,0.098021559127058,3.9812419174099e-06
0.41018338847083,-20874347.961246,37125496.261588,0.0020307407624011,3.2273106729337e-05,-4.1018338847083e-05,0.0020310176119262,0.016169966993896,-20874347.961233,37125496.261612,-20874347.961257,37125496.26157,64,3,0.098009051380505,3.981185746537e-06
0.41221412923323,-20876343.994859,37127852.981897,0.0020304648801951,3.2455132088477e-05,-4.1221412923323e-05,0.0020307407624011,0.016269980581041,-20876343.994846,37127852.98192,-20876343.994869,37127852.981879,64,3,0.09799654476127,3.981129591929e-06
0.41424459411342,-20878320.268238,37130206.053382,0.0020301899353994,3.2637174741159e-05,-4.1424459411342e-05,0.0020304648801951,0.016369994123852,-20878320.268225,37130206.053405,-20878320.268248,37130206.053364,64,3,0.097984039279617,3.9810734533392e-06
0.41627478404882,-20880277.371965,37132555.598267,0.002029915899145,3.2819234660297e-05,-4.1627478404882e-05,0.0020301899353994,0.016470007623733,-20880277.371952,37132555.59829,-20880277.371975,37132555.598249,64,3,0.097971534945506,3.9810173305287e-06
0.41830469994797,-20882215.878691,37134901.734293,0.0020296427435599,3.300131181954e-05,-4.1830469994797e-05,0.002029915899145,0.016570021082041,-20882215.878679,37134901.734315,-20882215.878702,37134901.734275,64,3,0.097959031768597,3.9809612232656e-06
0.42033434269153,-20884136.343686,37137244.574909,0.0020293704417308,3.3183406193257e-05,-4.2033434269153e-05,0.0020296427435599,0.016670034500085,-20884136.343673,37137244.574932,-20884136.343696,37137244.574892,64,3,0.09794652975826,3.9809051313251e-06
0.42236371313326,-20886039.305393,37139584.229455,0.0020290989676674,3.3365517756519e-05,-4.2236371313326e-05,0.0020293704417308,0.01677004787913,-20886039.30538,37139584.229478,-20886039.305402,37139584.229437,64,3,0.097934028923584,3.9808490544893e-06
0.42439281210093,-20887925.285944,37141920.803332,0.0020288282962635,3.3547646485088e-05,-4.2439281210093e-05,0.0020290989676674,0.016870061220396,-20887925.285932,37141920.803354,-20887925.285955,37141920.803315,64,3,0.097921529273387,3.9807929925468e-06
0.42642164039719,-20889794.791681,37144254.398166,0.0020285584032665,3.37297923554e-05,-4.2642164039719e-05,0.0020288282962635,0.016970074525066,-20889794.791668,37144254.398189,-20889794.791691,37144254.398148,64,3,0.09790903081622,3.9807369452927e-06
0.42845019880046,-20891648.31364,37146585.111962,0.0020282892652432,3.391195534455e-05,-4.2845019880046e-05,0.0020285584032665,0.017070087794278,-20891648.313627,37146585.111985,-20891648.313651,37146585.111945,64,3,0.097896533560379,3.9806809125281e-06
0.4304784880657,-20893486.328023,37148913.039256,0.0020280208595489,3.4094135430278e-05,-4.304784880657e-05,0.0020282892652432,0.017170101029136,-20893486.328011,37148913.039278,-20893486.328034,37148913.039238,64,3,0.09788403751391,3.9806248940602e-06
0.43250650892525,-20895309.296673,37151238.271248,0.0020277531642993,3.4276332590954e-05,-4.3250650892525e-05,0.0020280208595489,0.017270114230706,-20895309.296661,37151238.27127,-20895309.296685,37151238.27123,64,3,0.097871542684617,3.980568889702e-06
0.43453426208955,-20897117.667508,37153560.895942,0.002027486158339,3.4458546805561e-05,-4.3453426208955e-05,0.0020277531642993,0.017370127400016,-20897117.667496,37153560.895964,-20897117.667519,37153560.895925,64,3,0.097859049080068,3.9805128992723e-06
0.43656174824789,-20898911.874954,37155880.998275,0.0020272198212183,3.4640778053686e-05,-4.3656174824789e-05,0.002027486158339,0.017470140538064,-20898911.874942,37155880.998297,-20898911.874966,37155880.998257,64,3,0.097846556707606,3.980456922595e-06
0.43858896806911,-20900692.340361,37158198.660233,0.002026954133164,3.4823026315502e-05,-4.3858896806911e-05,0.0020272198212183,0.017570153645812,-20900692.340349,37158198.660254,-20900692.340372,37158198.660215,64,3,0.097834065574352,3.9804009594995e-06
0.44061592220227,-20902459.472408,37160513.960971,0.0020266890750571,3.5005291571754e-05,-4.4061592220227e-05,0.002026954133164,0.017670166724192,-20902459.472396,37160513.960993,-20902459.472419,37160513.960954,64,3,0.09782157568721,3.9803450098202e-06
0.44264261127733,-20904213.667493,37162826.976923,0.0020264246284069,3.5187573803745e-05,-4.4264261127733e-05,0.0020266890750571,0.017770179774105,-20904213.667481,37162826.976945,-20904213.667503,37162826.976905,64,3,0.09780908705288,3.9802890733967e-06
0.44466903590573,-20905955.31011,37165137.781907,0.0020261607753308,3.5369872993326e-05,-4.4466903590573e-05,0.0020264246284069,0.017870192796421,-20905955.310099,37165137.781929,-20905955.310121,37165137.781889,64,3,0.097796599677857,3.9802331500731e-06
0.44669519668106,-20907684.773218,37167446.447225,0.0020258974985292,3.5552189122877e-05,-4.4669519668106e-05,0.0020261607753308,0.017970205791984,-20907684.773207,37167446.447246,-20907684.773229,37167446.447207,64,3,0.09778411356844,3.9801772396982e-06
0.44872109417959,-20909402.418586,37169753.041763,0.0020256347812669,3.57345221753e-05,-4.4872109417959e-05,0.0020258974985292,0.01807021876161,-20909402.418574,37169753.041784,-20909402.418596,37169753.041745,64,3,0.097771628730741,3.9801213421256e-06
0.45074672896086,-20911108.597146,37172057.632077,0.0020253726073529,3.5916872134001e-05,-4.5074672896086e-05,0.0020256347812669,0.018170231706088,-20911108.597134,37172057.632098,-20911108.597158,37172057.632059,64,3,0.097759145170682,3.9800654572129e-06
0.45277210156821,-20912803.649315,37174360.282487,0.0020251109611201,3.6099238982879e-05,-4.5277210156821e-05,0.0020253726073529,0.018270244626181,-20912803.649304,37174360.282509,-20912803.649327,37174360.282469,64,3,0.097746662894011,3.9800095848221e-06
0.45479721252933,-20914487.905327,37176661.055158,0.0020248498274077,3.6281622706316e-05,-4.5479721252933e-05,0.0020251109611201,0.018370257522629,-20914487.905315,37176661.055179,-20914487.905338,37176661.05514,64,3,0.097734181906299,3.9799537248194e-06
0.45682206235674,-20916161.685528,37178960.010179,0.0020245891915433,3.646402328916e-05,-4.5682206235674e-05,0.0020248498274077,0.018470270396147,-20916161.685516,37178960.010201,-20916161.68554,37178960.010161,64,3,0.097721702212951,3.9798978770748e-06
0.45884665154828,-20917825.300698,37181257.205643,0.0020243290393259,3.6646440716716e-05,-4.5884665154828e-05,0.0020245891915433,0.018570283247428,-20917825.300686,37181257.205665,-20917825.30071,37181257.205625,64,3,0.097709223819204,3.9798420414623e-06
0.46087098058761,-20919479.052324,37183552.697719,0.0020240693570081,3.6828874974736e-05,-4.6087098058761e-05,0.0020243290393259,0.018670296077142,-20919479.052312,37183552.697741,-20919479.052336,37183552.697701,64,3,0.097696746730141,3.9797862178596e-06
0.46289504994462,-20921123.23289,37185846.540724,0.0020238101312835,3.7011326049404e-05,-4.6289504994462e-05,0.0020240693570081,0.018770308885938,-20921123.232878,37185846.540745,-20921123.232902,37185846.540706,64,3,0.097684270950688,3.9797304061478e-06
0.4649188600759,-20922758.126152,37188138.787186,0.0020235513492683,3.7193793927324e-05,-4.649188600759e-05,0.0020238101312835,0.018870321674445,-20922758.12614,37188138.787206,-20922758.126163,37188138.787168,64,3,0.097671796485621,3.979674606212e-06
0.46694241142517,-20924384.0074,37190429.487914,0.0020232929984893,3.7376278595514e-05,-4.6694241142517e-05,0.0020235513492683,0.018970334443271,-20924384.007388,37190429.487935,-20924384.007412,37190429.487896,64,3,0.097659323339574,3.9796188179402e-06
0.46896570442366,-20926001.143714,37192718.692058,0.0020230350668682,3.7558780041391e-05,-4.6896570442366e-05,0.0020232929984893,0.019070347193006,-20926001.143702,37192718.69208,-20926001.143727,37192718.692041,64,3,0.097646851517036,3.9795630412241e-06
0.47098873949053,-20927609.794217,37195006.447168,0.0020227775427093,3.7741298252762e-05,-4.7098873949053e-05,0.0020230350668682,0.019170359924221,-20927609.794205,37195006.447189,-20927609.794229,37195006.44715,64,3,0.097634381022363,3.9795072759583e-06
0.47301151703324,-20929210.210309,37197292.799248,0.0020225204146863,3.7923833217812e-05,-4.7301151703324e-05,0.0020227775427093,0.019270372637468,-20929210.210298,37197292.799269,-20929210.210321,37197292.79923,64,3,0.097621911859775,3.9794515220407e-06
0.47503403744792,-20930802.635908,37199577.792819,0.0020222636718288,3.8106384925098e-05,-4.7503403744792e-05,0.0020225204146863,0.019370385333282,-20930802.635896,37199577.79284,-20930802.63592,37199577.792801,64,3,0.097609444033366,3.9793957793722e-06
0.47705630111975,-20932387.307668,37201861.470964,0.0020220073035122,3.8288953363533e-05,-4.7705630111975e-05,0.0020222636718288,0.019470398012183,-20932387.307656,37201861.470985,-20932387.30768,37201861.470946,64,3,0.097596977547103,3.9793400478565e-06
0.47907830842326,-20933964.455206,37204143.875379,0.002021751299445,3.8471538522382e-05,-4.7907830842326e-05,0.0020220073035122,0.019570410674674,-20933964.455195,37204143.8754,-20933964.455219,37204143.875361,64,3,0.097584512404834,3.9792843274003e-06
0.48110005972271,-20935534.301311,37206425.046424,0.0020214956496578,3.8654140391249e-05,-4.8110005972271e-05,0.002021751299445,0.019670423321239,-20935534.301298,37206425.046445,-20935534.301323,37206425.046406,64,3,0.097572048610287,3.9792286179128e-06
0.48312155537237,-20937097.062143,37208705.023169,0.0020212403444931,3.8836758960071e-05,-4.8312155537237e-05,0.0020214956496578,0.019770435952353,-20937097.062132,37208705.023189,-20937097.062156,37208705.023151,64,3,0.097559586167078,3.9791729193062e-06
0.48514279571686,-20938652.947449,37210983.843436,0.0020209853745934,3.9019394219105e-05,-4.8514279571686e-05,0.0020212403444931,0.01987044856847,-20938652.947437,37210983.843456,-20938652.947462,37210983.843418,64,3,0.09754712507871,3.9791172314949e-06
0.48716378109145,-20940202.160734,37213261.543847,0.0020207307308945,3.9202046158923e-05,-4.8716378109145e-05,0.0020209853745934,0.019970461170035,-20940202.160722,37213261.543867,-20940202.160747,37213261.543829,64,3,0.09753466534858,3.9790615543962e-06
0.48918451182235,-20941744.899472,37215538.159858,0.0020204764046131,3.93847147704e-05,-4.8918451182235e-05,0.0020207307308945,0.020070473757476,-20941744.899461,37215538.159878,-20941744.899486,37215538.15984,64,3,0.097522206979981,3.9790058879295e-06
0.49120498822696,-20943281.355266,37217813.725806,0.0020202223872374,3.956740004471e-05,-4.9120498822696e-05,0.0020204764046131,0.020170486331208,-20943281.355253,37217813.725826,-20943281.355279,37217813.725788,64,3,0.097509749976103,3.9789502320167e-06
0.4932252106142,-20944811.714041,37220088.274941,0.0020199686705207,3.9750101973313e-05,-4.932252106142e-05,0.0020202223872374,0.020270498891636,-20944811.71403,37220088.27496,-20944811.714055,37220088.274923,64,3,0.09749729434004,3.978894586582e-06
0.49524517928472,-20946336.1562,37222361.839469,0.0020197152464704,3.9932820547952e-05,-4.9524517928472e-05,0.0020199686705207,0.02037051143915,-20946336.156188,37222361.839488,-20946336.156214,37222361.83945,64,3,0.097484840074788,3.9788389515518e-06
0.49726489453119,-20947854.856805,37224634.450577,0.0020194621073418,4.011555576064e-05,-4.9726489453119e-05,0.0020197152464704,0.020470523974127,-20947854.856793,37224634.450597,-20947854.856818,37224634.450559,64,3,0.097472387183252,3.9787833268546e-06
0.49928435663853,-20949367.985724,37226906.13848,0.0020192092456284,4.0298307603657e-05,-4.9928435663853e-05,0.0020194621073418,0.020570536496936,-20949367.985713,37226906.1385,-20949367.985737,37226906.138462,64,3,0.097459935668248,3.978727712421e-06
0.50130356588416,-20950875.707788,37229176.932446,0.0020189566540541,4.0481076069542e-05,-5.0130356588416e-05,0.0020192092456284,0.02067054900793,-20950875.707776,37229176.932465,-20950875.707801,37229176.932428,64,3,0.097447485532505,3.9786721081838e-06
0.50332252253821,-20952378.18295,37231446.860826,0.0020187043255675,4.0663861151081e-05,-5.0332252253821e-05,0.0020189566540541,0.020770561507457,-20952378.182939,37231446.860845,-20952378.182965,37231446.860807,64,3,0.097435036778664,3.9786165140774e-06
0.50534122686378,-20953875.566427,37233715.951087,0.002018452253334,4.0846662841307e-05,-5.0534122686378e-05,0.0020187043255675,0.020870573995849,-20953875.566414,37233715.951106,-20953875.56644,37233715.951069,64,3,0.097422589409287,3.9785609300385e-06
0.50735967911712,-20955368.008835,37235984.229844,0.0020182004307273,4.102948113349e-05,-5.0735967911712e-05,0.002018452253334,0.02097058647343,-20955368.008823,37235984.229862,-20955368.008847,37235984.229826,64,3,0.097410143426857,3.9785053560053e-06
0.50937787954784,-20956855.656335,37238251.722882,0.0020179488513251,4.1212316021128e-05,-5.0937787954784e-05,0.0020182004307273,0.021070598940514,-20956855.656323,37238251.7229,-20956855.656348,37238251.722864,64,3,0.097397698833778,3.978449791918e-06
0.51139582839917,-20958338.650765,37240518.455189,0.0020176975089016,4.1395167497945e-05,-5.1139582839917e-05,0.0020179488513251,0.021170611397407,-20958338.650754,37240518.455208,-20958338.650779,37240518.455172,64,3,0.097385255632379,3.9783942377186e-06
0.51341352590807,-20959817.129765,37242784.45098,0.0020174463974199,4.1578035557882e-05,-5.1341352590807e-05,0.0020176975089016,0.021270623844403,-20959817.129754,37242784.450999,-20959817.129778,37242784.450963,64,3,0.097372813824917,3.9783386933505e-06
0.51543097230549,-20961291.226901,37245049.73372,0.0020171955110286,4.1760920195092e-05,-5.1543097230549e-05,0.0020174463974199,0.021370636281789,-20961291.226889,37245049.733738,-20961291.226914,37245049.733702,64,3,0.097360373413578,3.978283158759e-06
0.51744816781652,-20962761.071795,37247314.326148,0.0020169448440549,4.1943821403933e-05,-5.1744816781652e-05,0.0020171955110286,0.021470648709841,-20962761.071783,37247314.326166,-20962761.071808,37247314.326129,64,3,0.097347934400479,3.9782276338909e-06
0.51946511266057,-20964226.790238,37249578.250307,0.002016694390997,4.2126739178964e-05,-5.1946511266057e-05,0.0020169448440549,0.02157066112883,-20964226.790226,37249578.250326,-20964226.790252,37249578.250288,64,3,0.097335496787672,3.9781721186944e-06
0.52148180705157,-20965688.504296,37251841.52756,0.0020164441465223,4.2309673514937e-05,-5.2148180705157e-05,0.002016694390997,0.021670673539016,-20965688.504284,37251841.527578,-20965688.504309,37251841.527541,64,3,0.097323060577142,3.9781166131195e-06
0.52349825119809,-20967146.332436,37254104.178613,0.002016194105459,4.2492624406793e-05,-5.2349825119809e-05,0.0020164441465223,0.021770685940652,-20967146.332425,37254104.178631,-20967146.33245,37254104.178594,64,3,0.097310625770815,3.9780611171173e-06
0.52551444530355,-20968600.389623,37256366.223538,0.0020159442627924,4.2675591849657e-05,-5.2551444530355e-05,0.002016194105459,0.021870698333984,-20968600.389611,37256366.223556,-20968600.389636,37256366.22352,64,3,0.097298192370552,3.9780056306407e-06
0.52753038956634,-20970050.787427,37258627.681793,0.0020156946136608,4.2858575838832e-05,-5.2753038956634e-05,0.0020159442627924,0.021970710719249,-20970050.787414,37258627.681811,-20970050.78744,37258627.681774,64,3,0.097285760378159,3.9779501536435e-06
0.52954608418,-20971497.63412,37260888.57224,0.0020154451533484,4.3041576369795e-05,-5.2954608418e-05,0.0020156946136608,0.022070723096678,-20971497.634108,37260888.572258,-20971497.634135,37260888.572221,64,3,0.097273329795381,3.9778946860812e-06
0.53156152933335,-20972941.034783,37263148.913166,0.0020151958772829,4.322459343819e-05,-5.3156152933335e-05,0.0020154451533484,0.022170735466496,-20972941.034771,37263148.913184,-20972941.034797,37263148.913147,64,3,0.09726090062391,3.9778392279104e-06
0.53357672521064,-20974381.091395,37265408.722297,0.0020149467810306,4.3407627039825e-05,-5.3357672521064e-05,0.0020151958772829,0.022270747828919,-20974381.091383,37265408.722314,-20974381.091409,37265408.722278,64,3,0.097248472865383,3.977783779089e-06
0.53559167199167,-20975817.902922,37267668.016823,0.0020146978602909,4.3590677170668e-05,-5.3559167199167e-05,0.0020149467810306,0.022370760184158,-20975817.90291,37267668.016841,-20975817.902937,37267668.016805,64,3,0.097236046521386,3.9777283395761e-06
0.53760636985196,-20977251.565413,37269926.81341,0.0020144491108934,4.377374382684e-05,-5.3760636985196e-05,0.0020146978602909,0.022470772532416,-20977251.565401,37269926.813428,-20977251.565427,37269926.813392,64,3,0.097223621593452,3.9776729093319e-06
0.53962081896285,-20978682.172086,37272185.128216,0.0020142005287931,4.3956827004611e-05,-5.3962081896285e-05,0.0020144491108934,0.022570784873893,-20978682.172074,37272185.128233,-20978682.1721,37272185.128197,64,3,0.097211198083067,3.9776174883179e-06
0.54163501949164,-20980109.813404,37274442.976908,0.0020139521100678,4.4139926700401e-05,-5.4163501949164e-05,0.0020142005287931,0.02267079720878,-20980109.813393,37274442.976926,-20980109.813419,37274442.97689,64,3,0.097198775991667,3.9775620764966e-06
0.54364897160171,-20981534.57717,37276700.37468,0.0020137038509128,4.4323042910766e-05,-5.4364897160171e-05,0.0020139521100678,0.022770809537264,-20981534.577159,37276700.374697,-20981534.577184,37276700.374662,64,3,0.097186355320644,3.9775066738315e-06
0.54566267545262,-20982956.548592,37278957.336264,0.0020134557476373,4.4506175632405e-05,-5.4566267545262e-05,0.0020137038509128,0.022870821859525,-20982956.548581,37278957.336281,-20982956.548606,37278957.336246,64,3,0.097173936071343,3.9774512802873e-06
0.54767613120026,-20984375.81037,37281213.875949,0.0020132077966624,4.4689324862146e-05,-5.4767613120026e-05,0.0020134557476373,0.022970834175738,-20984375.810359,37281213.875966,-20984375.810384,37281213.87593,64,3,0.097161518245065,3.9773958958296e-06
0.54968933899692,-20985792.442768,37283470.007588,0.0020129599945165,4.487249059695e-05,-5.4968933899692e-05,0.0020132077966624,0.023070846486074,-20985792.442756,37283470.007605,-20985792.442782,37283470.00757,64,3,0.097149101843072,3.9773405204249e-06
0.55170229899144,-20987206.523681,37285725.744618,0.0020127123378318,4.5055672833903e-05,-5.5170229899144e-05,0.0020129599945165,0.023170858790697,-20987206.52367,37285725.744635,-20987206.523695,37285725.7446,64,3,0.09713668686658,3.977285154041e-06
0.55371501132927,-20988618.128711,37287981.10007,0.0020124648233426,4.5238871570213e-05,-5.5371501132927e-05,0.0020127123378318,0.023270871089768,-20988618.1287,37287981.100086,-20988618.128725,37287981.100052,64,3,0.097124273316769,3.9772297966461e-06
0.55572747615261,-20990027.331236,37290236.086581,0.0020122174478793,4.5422086803207e-05,-5.5572747615261e-05,0.0020124648233426,0.023370883383443,-20990027.331226,37290236.086598,-20990027.331251,37290236.086563,64,3,0.097111861194778,3.9771744482098e-06
0.55773969360049,-20991434.202469,37292490.71641,0.0020119702083693,4.5605318530329e-05,-5.5773969360049e-05,0.0020122174478793,0.02347089567187,-20991434.202458,37292490.716427,-20991434.202483,37292490.716393,64,3,0.097099450501709,3.9771191087022e-06
0.55975166380886,-20992838.81153,37294745.001444,0.0020117231018297,4.5788566749134e-05,-5.5975166380886e-05,0.0020119702083693,0.023570907955197,-20992838.811518,37294745.001461,-20992838.811544,37294745.001426,64,3,0.097087041238628,3.9770637780943e-06
0.56176338691069,-20994241.225499,37296998.953215,0.0020114761253693,4.5971831457286e-05,-5.6176338691069e-05,0.0020117231018297,0.023670920233566,-20994241.225488,37296998.953231,-20994241.225514,37296998.953197,64,3,0.097074633406565,3.9770084563582e-06
0.56377486303606,-20995641.509485,37299252.582908,0.0020112292761817,4.6155112652556e-05,-5.6377486303606e-05,0.0020114761253693,0.023770932507113,-20995641.509474,37299252.582924,-20995641.509499,37299252.58289,64,3,0.097062227006515,3.9769531434664e-06
0.56578609231224,-20997039.726682,37301505.901369,0.0020109825515453,4.6338410332816e-05,-5.6578609231224e-05,0.0020112292761817,0.023870944775973,-20997039.726671,37301505.901384,-20997039.726696,37301505.901351,64,3,0.097049822039441,3.9768978393925e-06
0.56779707486379,-20998435.938421,37303758.919122,0.002010735948819,4.652172449604e-05,-5.6779707486379e-05,0.0020109825515453,0.023970957040274,-20998435.93841,37303758.919139,-20998435.938434,37303758.919104,64,3,0.097037418506273,3.9768425441106e-06
0.56980781081261,-20999830.20423,37306011.646377,0.0020104894654408,4.6705055140299e-05,-5.6980781081261e-05,0.002010735948819,0.024070969300143,-20999830.204219,37306011.646393,-20999830.204244,37306011.646359,64,3,0.097025016407909,3.9767872575957e-06
0.57181830027805,-21001222.581885,37308264.093033,0.0020102430989261,4.6888402263757e-05,-5.7181830027805e-05,0.0020104894654408,0.024170981555701,-21001222.581874,37308264.093049,-21001222.581899,37308264.093015,64,3,0.097012615745217,3.9767319798233e-06
0.57382854337698,-21002613.127461,37310516.268696,0.002009996846862,4.707176586467e-05,-5.7382854337698e-05,0.0020102430989261,0.024270993807066,-21002613.127451,37310516.268713,-21002613.127475,37310516.268678,64,3,0.097000216519036,3.9766767107699e-06
0.57583854022384,-21004001.895392,37312768.182683,0.002009750706911,4.7255145941382e-05,-5.7583854022384e-05,0.002009996846862,0.024371006054354,-21004001.895381,37312768.1827,-21004001.895406,37312768.182665,64,3,0.096987818730175,3.9766214504123e-06
0.57784829093075,-21005388.938501,37315019.844033,0.0020095046768021,4.7438542492325e-05,-5.7784829093075e-05,0.002009750706911,0.024471018297674,-21005388.938491,37315019.844051,-21005388.938515,37315019.844015,64,3,0.096975422379416,3.9765661987281e-06
0.57985779560755,-21006774.308062,37317271.261518,0.002009258754333,4.7621955516016e-05,-5.7985779560755e-05,0.0020095046768021,0.024571030537136,-21006774.308051,37317271.261536,-21006774.308076,37317271.2615,64,3,0.096963027467514,3.9765109556957e-06
0.58186705436188,-21008158.053843,37319522.443643,0.0020090129373676,4.7805385011049e-05,-5.8186705436188e-05,0.002009258754333,0.024671042772844,-21008158.053832,37319522.443661,-21008158.053857,37319522.443626,64,3,0.096950633995197,3.9764557212938e-06
0.58387606729925,-21009540.224146,37321773.398661,0.0020087672238323,4.7988830976102e-05,-5.8387606729925e-05,0.0020090129373676,0.0247710550049,-21009540.224135,37321773.398678,-21009540.224159,37321773.398644,64,3,0.096938241963169,3.9764004955019e-06
0.58588483452308,-21010920.865856,37324024.134579,0.0020085216117161,4.8172293409927e-05,-5.8588483452308e-05,0.0020087672238323,0.024871067233402,-21010920.865844,37324024.134597,-21010920.865869,37324024.134562,64,3,0.096925851372106,3.9763452782999e-06
0.5878933561348,-21012300.024479,37326274.659166,0.0020082760990668,4.8355772311351e-05,-5.878933561348e-05,0.0020085216117161,0.024971079458446,-21012300.024468,37326274.659183,-21012300.024492,37326274.659148,64,3,0.096913462222664,3.9762900696684e-06
0.58990163223387,-21013677.744183,37328524.979958,0.0020080306839909,4.8539267679275e-05,-5.8990163223387e-05,0.0020082760990668,0.025071091680126,-21013677.744172,37328524.979975,-21013677.744197,37328524.97994,64,3,0.096901074515474,3.9762348695886e-06
0.59190966291786,-21015054.067841,37330775.104267,0.0020077853646509,4.8722779512669e-05,-5.9190966291786e-05,0.0020080306839909,0.02517110389853,-21015054.06783,37330775.104284,-21015054.067855,37330775.10425,64,3,0.096888688251143,3.9761796780419e-06
0.59391744828251,-21016429.037064,37333025.039189,0.0020075401392635,4.8906307810571e-05,-5.9391744828251e-05,0.0020077853646509,0.025271116113747,-21016429.037053,37333025.039207,-21016429.037077,37333025.039172,64,3,0.096876303430258,3.9761244950106e-06
0.59592498842177,-21017802.692239,37335274.791608,0.002007295006099,4.9089852572086e-05,-5.9592498842177e-05,0.0020075401392635,0.025371128325861,-21017802.692228,37335274.791624,-21017802.692251,37335274.79159,64,3,0.096863920053384,3.9760693204772e-06
0.59793228342787,-21019175.072573,37337524.368199,0.0020070499634782,4.9273413796384e-05,-5.9793228342787e-05,0.002007295006099,0.025471140534955,-21019175.072562,37337524.368216,-21019175.072586,37337524.368181,64,3,0.096851538121066,3.9760141544248e-06
0.59993933339135,-21020546.216115,37339773.775446,0.002006805009772,4.9456991482697e-05,-5.9993933339135e-05,0.0020070499634782,0.025571152741108,-21020546.216104,37339773.775463,-21020546.216128,37339773.775428,64,3,0.096839157633828,3.9759589968369e-06
0.60194613840112,-21021916.159801,37342023.019634,0.0020065601433998,4.9640585630318e-05,-6.0194613840112e-05,0.002006805009772,0.025671164944398,-21021916.159791,37342023.019651,-21021916.159815,37342023.019615,64,3,0.096826778592173,3.9759038476976e-06
0.60395269854452,-21023284.939479,37344272.106865,0.0020063153628271,4.98241962386e-05,-6.0395269854452e-05,0.0020065601433998,0.025771177144901,-21023284.939469,37344272.106882,-21023284.939492,37344272.106847,64,3,0.09681440099659,3.9758487069911e-06
0.60595901390735,-21024652.589949,37346521.043058,0.0020060706665664,5.000782330695e-05,-6.0595901390735e-05,0.0020063153628271,0.02587118934269,-21024652.589938,37346521.043075,-21024652.589962,37346521.04304,64,3,0.096802024847544,3.9757935747025e-06
0.60796508457391,-21026019.144988,37348769.833956,0.0020058260531715,5.0191466834834e-05,-6.0796508457391e-05,0.0020060706665664,0.025971201537834,-21026019.144977,37348769.833973,-21026019.145001,37348769.833938,64,3,0.096789650145486,3.9757384508169e-06
0.60997091062709,-21027384.637377,37351018.485136,0.0020055815212419,5.0375126821773e-05,-6.0997091062709e-05,0.0020058260531715,0.026071213730404,-21027384.637367,37351018.485152,-21027384.637391,37351018.485117,64,3,0.096777276890849,3.97568333532e-06
0.61197649214833,-21028749.098942,37353267.002003,0.0020053370694161,5.0558803267336e-05,-6.1197649214833e-05,0.0020055815212419,0.026171225920465,-21028749.098932,37353267.002019,-21028749.098956,37353267.001985,64,3,0.096764905084047,3.9756282281979e-06
0.61398182921774,-21030112.560569,37355515.389806,0.0020050926963744,5.0742496171148e-05,-6.1398182921774e-05,0.0020053370694161,0.026271238108083,-21030112.560559,37355515.389823,-21030112.560583,37355515.389788,64,3,0.096752534725482,3.9755731294369e-06
0.61598692191412,-21031475.05224,37357763.653638,0.0020048484008354,5.0926205532879e-05,-6.1598692191412e-05,0.0020050926963744,0.02637125029332,-21031475.05223,37357763.653655,-21031475.052254,37357763.65362,64,3,0.096740165815535,3.9755180390238e-06
0.61799177031495,-21032836.603061,37360011.798438,0.002004604181556,5.110993135225e-05,-6.1799177031495e-05,0.0020048484008354,0.026471262476237,-21032836.603051,37360011.798454,-21032836.603075,37360011.79842,64,3,0.096727798354576,3.9754629569458e-06
0.61999637449651,-21034197.241279,37362259.829002,0.0020043600373286,5.1293673629029e-05,-6.1999637449651e-05,0.002004604181556,0.026571274656894,-21034197.241269,37362259.829019,-21034197.241292,37362259.828985,64,3,0.096715432342958,3.9754078831903e-06
0.62200073453384,-21035556.994314,37364507.749985,0.0020041159669834,5.1477432363027e-05,-6.2200073453384e-05,0.0020043600373286,0.026671286835348,-21035556.994303,37364507.750002,-21035556.994328,37364507.749968,64,3,0.09670306778102,3.9753528177451e-06
0.62400485050082,-21036915.888783,37366755.565901,0.0020038719693828,5.1661207554101e-05,-6.2400485050082e-05,0.0020041159669834,0.026771299011655,-21036915.888773,37366755.565917,-21036915.888796,37366755.565883,64,3,0.096690704669087,3.9752977605983e-06
0.6260087224702,-21038273.950521,37369003.281132,0.0020036280434236,5.1844999202151e-05,-6.260087224702e-05,0.0020038719693828,0.026871311185868,-21038273.95051,37369003.281148,-21038273.950534,37369003.281115,64,3,0.09667834300747,3.9752427117385e-06
0.62801235051363,-21039631.204606,37371250.89993,0.0020033841880355,5.2028807307116e-05,-6.2801235051363e-05,0.0020036280434236,0.02697132335804,-21039631.204596,37371250.899946,-21039631.204619,37371250.899912,64,3,0.096665982796468,3.9751876711543e-06
0.63001573470166,-21040987.675376,37373498.426421,0.0020031404021796,5.2212631868978e-05,-6.3001573470166e-05,0.0020033841880355,0.027071335528223,-21040987.675366,37373498.426438,-21040987.67539,37373498.426404,64,3,0.096653624036367,3.9751326388348e-06
0.63201887510384,-21042343.386467,37375745.86461,0.0020028966848473,5.2396472887757e-05,-6.3201887510384e-05,0.0020031404021796,0.027171347696466,-21042343.386457,37375745.864626,-21042343.38648,37375745.864592,64,3,0.096641266727438,3.9750776147693e-06
0.63402177178869,-21043698.36081,37377993.218382,0.0020026530350597,5.2580330363512e-05,-6.3402177178869e-05,0.0020028966848473,0.027271359862816,-21043698.3608,37377993.218398,-21043698.360823,37377993.218365,64,3,0.096628910869943,3.9750225989474e-06
0.63602442482375,-21045052.620671,37380240.491508,0.002002409451867,5.2764204296336e-05,-6.3602442482375e-05,0.0020026530350597,0.02737137202732,-21045052.620662,37380240.491525,-21045052.620684,37380240.491491,64,3,0.096616556464132,3.974967591359e-06
0.63802683427562,-21046406.187659,37382487.687649,0.0020021659343468,5.2948094686363e-05,-6.3802683427562e-05,0.002002409451867,0.027471384190024,-21046406.18765,37382487.687665,-21046406.187672,37382487.687632,64,3,0.096604203510242,3.9749125919942e-06
0.64002900020996,-21047759.082755,37384734.810355,0.0020019224816045,5.3132001533756e-05,-6.4002900020996e-05,0.0020021659343468,0.027571396350971,-21047759.082744,37384734.810372,-21047759.082768,37384734.810338,64,3,0.096591852008499,3.9748576008434e-06
0.64203092269157,-21049111.326319,37386981.863075,0.0020016790927708,5.3315924838717e-05,-6.4203092269157e-05,0.0020019224816045,0.027671408510204,-21049111.326309,37386981.863091,-21049111.326332,37386981.863057,64,3,0.096579501959121,3.9748026178972e-06
0.64403260178434,-21050462.938117,37389228.849152,0.0020014357670031,5.3499864601477e-05,-6.4403260178434e-05,0.0020016790927708,0.027771420667764,-21050462.938107,37389228.849169,-21050462.93813,37389228.849135,64,3,0.096567153362312,3.9747476431466e-06
0.64603403755134,-21051813.937337,37391475.771832,0.002001192503483,5.3683820822301e-05,-6.4603403755134e-05,0.0020014357670031,0.027871432823692,-21051813.937326,37391475.77185,-21051813.93735,37391475.771816,64,3,0.096554806218268,3.9746926765826e-06
0.64803523005482,-21053164.342604,37393722.634267,0.0020009493014156,5.3867793501485e-05,-6.4803523005482e-05,0.002001192503483,0.027971444978026,-21053164.342594,37393722.634284,-21053164.342617,37393722.63425,64,3,0.096542460527176,3.9746377181965e-06
0.65003617935624,-21054514.171995,37395969.439512,0.0020007061600305,5.4051782639354e-05,-6.5003617935624e-05,0.0020009493014156,0.028071457130804,-21054514.171985,37395969.439529,-21054514.172008,37395969.439496,64,3,0.09653011628921,3.97458276798e-06
0.65203688551627,-21055863.443063,37398216.190537,0.0020004630785786,5.4235788236262e-05,-6.5203688551627e-05,0.0020007061600305,0.028171469282063,-21055863.443053,37398216.190553,-21055863.443076,37398216.19052,64,3,0.09651777350454,3.9745278259247e-06
0.65403734859485,-21057212.172841,37400462.890219,0.0020002200563336,5.4419810292593e-05,-6.5403734859485e-05,0.0020004630785786,0.028271481431838,-21057212.172831,37400462.890235,-21057212.172855,37400462.890202,64,3,0.096505432173321,3.9744728920227e-06
0.65603756865118,-21058560.377864,37402709.541355,0.0019999770925903,5.4603848808757e-05,-6.5603756865118e-05,0.0020002200563336,0.028371493580163,-21058560.377854,37402709.541371,-21058560.377877,37402709.541338,64,3,0.096493092295705,3.9744179662661e-06
0.65803754574377,-21059908.074189,37404956.146654,0.0019997341866641,5.4787903785192e-05,-6.5803754574377e-05,0.0019999770925903,0.028471505727074,-21059908.074178,37404956.146669,-21059908.074202,37404956.146638,64,3,0.096480753871832,3.9743630486473e-06
0.66003727993044,-21061255.277394,37407202.708751,0.0019994913378903,5.4971975222361e-05,-6.6003727993044e-05,0.0019997341866641,0.028571517872601,-21061255.277384,37407202.708767,-21061255.277407,37407202.708735,64,3,0.096468416901835,3.9743081391588e-06
0.66203677126833,-21062602.002607,37409449.230201,0.0019992485456242,5.5156063120752e-05,-6.6203677126833e-05,0.0019994913378903,0.028671530016777,-21062602.002598,37409449.230216,-21062602.00262,37409449.230185,64,3,0.096456081385839,3.9742532377934e-06
0.66403601981395,-21063948.264507,37411695.713482,0.0019990058092387,5.5340167480879e-05,-6.6403601981395e-05,0.0019992485456242,0.028771542159632,-21063948.264498,37411695.713498,-21063948.26452,37411695.713466,64,3,0.096443747323961,3.9741983445439e-06
0.66603502562319,-21065294.077353,37413942.161,0.0019987631281266,5.5524288303278e-05,-6.6603502562319e-05,0.0019990058092387,0.028871554301196,-21065294.077343,37413942.161016,-21065294.077365,37413942.160984,64,3,0.096431414716311,3.9741434594036e-06
0.66803378875132,-21066639.454976,37416188.575092,0.0019985205016976,5.570842558851e-05,-6.6803378875132e-05,0.0019987631281266,0.028971566441498,-21066639.454967,37416188.575107,-21066639.454989,37416188.575076,64,3,0.096419083562991,3.9740885823656e-06
0.67003230925301,-21067984.41081,37418434.958022,0.0019982779293785,5.5892579337156e-05,-6.7003230925301e-05,0.0019985205016976,0.029071578580565,-21067984.410801,37418434.958037,-21067984.410822,37418434.958007,64,3,0.096406753864096,3.9740337134233e-06
0.67203058718239,-21069328.957891,37420681.311993,0.0019980354106134,5.6076749549821e-05,-6.7203058718239e-05,0.0019982779293785,0.029171590718426,-21069328.957882,37420681.312008,-21069328.957903,37420681.311977,64,3,0.096394425619716,3.9739788525704e-06
0.67402862259301,-21070673.108874,37422927.639137,0.0019977929448624,5.626093622713e-05,-6.7402862259301e-05,0.0019980354106134,0.029271602855107,-21070673.108865,37422927.639153,-21070673.108886,37422927.639121,64,3,0.096382098829931,3.9739239998005e-06
0.67602641553787,-21072016.876047,37425173.941529,0.0019975505316007,5.6445139369729e-05,-6.7602641553787e-05,0.0019977929448624,0.029371614990632,-21072016.876038,37425173.941544,-21072016.876059,37425173.941513,64,3,0.096369773494819,3.9738691551076e-06
0.67802396606947,-21073360.271333,37427420.221178,0.0019973081703196,5.6629358978284e-05,-6.7802396606947e-05,0.0019975505316007,0.029471627125028,-21073360.271325,37427420.221193,-21073360.271345,37427420.221161,64,3,0.096357449614447,3.9738143184856e-06
0.68002127423979,-21074703.306313,37429666.480035,0.0019970658605255,5.681359505348e-05,-6.8002127423979e-05,0.0019973081703196,0.029571639258317,-21074703.306304,37429666.480051,-21074703.306326,37429666.48002,64,3,0.096345127188878,3.9737594899287e-06
0.68201834010031,-21076045.992222,37431912.719997,0.0019968236017381,5.6997847596021e-05,-6.8201834010031e-05,0.0019970658605255,0.029671651390525,-21076045.992213,37431912.720012,-21076045.992233,37431912.71998,64,3,0.096332806218172,3.9737046694313e-06
0.68401516370205,-21077388.339968,37434158.942899,0.001996581393492,5.7182116606629e-05,-6.8401516370205e-05,0.0019968236017381,0.029771663521672,-21077388.33996,37434158.942915,-21077388.339981,37434158.942883,64,3,0.096320486702377,3.9736498569877e-06
0.68601174509554,-21078730.360146,37436405.150527,0.0019963392353348,5.7366402086044e-05,-6.8601174509555e-05,0.001996581393492,0.029871675651783,-21078730.360137,37436405.150543,-21078730.360159,37436405.150512,64,3,0.096308168641542,3.9735950525924e-06
0.68800808433088,-21080072.063035,37438651.344614,0.0019960971268277,5.7550704035023e-05,-6.8800808433088e-05,0.0019963392353348,0.029971687780877,-21080072.063026,37438651.344629,-21080072.063047,37438651.344598,64,3,0.096295852035706,3.9735402562403e-06
0.69000418145771,-21081413.458614,37440897.526839,0.0019958550675436,5.7735022454341e-05,-6.9000418145771e-05,0.0019960971268277,0.030071699908976,-21081413.458605,37440897.526855,-21081413.458627,37440897.526823,64,3,0.096283536884904,3.9734854679261e-06
0.69200003652525,-21082754.55657,37443143.698835,0.0019956130570693,5.7919357344788e-05,-6.9200003652525e-05,0.0019958550675436,0.0301717120361,-21082754.556561,37443143.698851,-21082754.556582,37443143.69882,64,3,0.096271223189167,3.9734306876447e-06
0.69399564958232,-21084095.366309,37445389.862185,0.0019953710950032,5.810370870717e-05,-6.9399564958232e-05,0.0019956130570693,0.030271724162268,-21084095.366301,37445389.8622,-21084095.366322,37445389.862169,64,3,0.096258910948521,3.9733759153911e-06
0.69599102067732,-21085435.89696,37447636.018424,0.0019951291809545,5.8288076542307e-05,-6.9599102067732e-05,0.0019953710950032,0.0303717362875,-21085435.896951,37447636.01844,-21085435.896972,37447636.018408,64,3,0.096246600162985,3.9733211511605e-06
0.69798614985828,-21086776.157385,37449882.169045,0.0019948873145444,5.8472460851037e-05,-6.9798614985828e-05,0.0019951291809545,0.030471748411814,-21086776.157376,37449882.169061,-21086776.157398,37449882.169029,64,3,0.096234290832576,3.9732663949482e-06
0.69998103717282,-21088116.156187,37452128.315495,0.0019946454954052,5.865686163421e-05,-6.9998103717282e-05,0.0019948873145444,0.030571760535228,-21088116.156178,37452128.31551,-21088116.156199,37452128.315478,64,3,0.096221982957306,3.9732116467494e-06
0.70197568266823,-21089455.901719,37454374.459177,0.0019944037231796,5.884127889269e-05,-7.0197568266823e-05,0.0019946454954052,0.030671772657759,-21089455.90171,37454374.459192,-21089455.90173,37454374.459161,64,3,0.096209676537181,3.9731569065597e-06
0.70397008639141,-21090795.402087,37456620.601458,0.00199416199752,5.9025712627357e-05,-7.0397008639141e-05,0.0019944037231796,0.030771784779425,-21090795.402077,37456620.601473,-21090795.402099,37456620.601442,64,3,0.096197371572203,3.9731021743746e-06
0.70596424838893,-21092134.665163,37458866.743659,0.0019939203180906,5.9210162839101e-05,-7.0596424838893e-05,0.00199416199752,0.030871796900241,-21092134.665155,37458866.743674,-21092134.665175,37458866.743642,64,3,0.096185068062373,3.9730474501898e-06
0.70795816870702,-21093473.698586,37461112.887064,0.0019936786845636,5.9394629528827e-05,-7.0795816870702e-05,0.0019939203180906,0.030971809020225,-21093473.698578,37461112.88708,-21093473.698599,37461112.887048,64,3,0.096172766007684,3.972992734001e-06
0.70995184739158,-21094812.509774,37463359.032922,0.0019934370966212,5.9579112697453e-05,-7.0995184739158e-05,0.0019936786845636,0.03107182113939,-21094812.509765,37463359.032938,-21094812.509786,37463359.032906,64,3,0.096160465408127,3.972938025804e-06
0.7119452844882,-21096151.105927,37465605.182442,0.0019931955539552,5.9763612345907e-05,-7.119452844882e-05,0.0019934370966212,0.031171833257752,-21096151.105918,37465605.182457,-21096151.105939,37465605.182425,64,3,0.09614816626369,3.9728833255948e-06
0.71393848004216,-21097489.494034,37467851.336797,0.001992954056266,5.994812847513e-05,-7.1393848004216e-05,0.0019931955539552,0.031271845375326,-21097489.494026,37467851.336813,-21097489.494047,37467851.33678,64,3,0.096135868574356,3.9728286333693e-06
0.71593143409842,-21098827.680882,37470097.497126,0.0019927126032629,6.0132661086075e-05,-7.1593143409842e-05,0.001992954056266,0.031371857492126,-21098827.680874,37470097.497142,-21098827.680894,37470097.49711,64,3,0.096123572340104,3.9727739491237e-06
0.71792414670169,-21100165.673057,37472343.664537,0.0019924711946624,6.0317210179705e-05,-7.1792414670169e-05,0.0019927126032629,0.031471869608165,-21100165.673049,37472343.664552,-21100165.67307,37472343.66452,64,3,0.096111277560911,3.9727192728541e-06
0.71991661789635,-21101503.476954,37474589.840104,0.0019922298301905,6.0501775756994e-05,-7.1991661789635e-05,0.0019924711946624,0.031571881723457,-21101503.476945,37474589.84012,-21101503.476966,37474589.840088,64,3,0.09609898423675,3.9726646045567e-06
0.72190884772654,-21102841.09878,37476836.024868,0.0019919885095809,6.0686357818928e-05,-7.2190884772654e-05,0.0019922298301905,0.031671893838015,-21102841.098772,37476836.024883,-21102841.098792,37476836.024852,64,3,0.096086692367591,3.9726099442279e-06
0.72390083623612,-21104178.544563,37479082.21984,0.0019917472325743,6.0870956366501e-05,-7.2390083623612e-05,0.0019919885095809,0.031771905951851,-21104178.544554,37479082.219855,-21104178.544575,37479082.219825,64,3,0.0960744019534,3.9725552918641e-06
0.7258925834687,-21105515.820149,37481328.426002,0.0019915059989194,6.1055571400718e-05,-7.2589258346869e-05,0.0019917472325743,0.031871918064978,-21105515.820141,37481328.426017,-21105515.820161,37481328.425985,64,3,0.096062112994142,3.9725006474617e-06
0.72788408946761,-21106852.931223,37483574.644304,0.0019912648083725,6.1240202922593e-05,-7.2788408946761e-05,0.0019915059989194,0.031971930177407,-21106852.931214,37483574.644319,-21106852.931234,37483574.644289,64,3,0.096049825489776,3.9724460110173e-06
0.72987535427599,-21108189.883296,37485820.875674,0.0019910236606957,6.142485093315e-05,-7.2987535427599e-05,0.0019912648083725,0.03207194228915,-21108189.883288,37485820.875688,-21108189.883308,37485820.875658,64,3,0.096037539440261,3.9723913825274e-06
0.73186637793668,-21109526.681718,37488067.121008,0.0019907825556584,6.1609515433423e-05,-7.3186637793668e-05,0.0019910236606957,0.032171954400218,-21109526.68171,37488067.121023,-21109526.68173,37488067.120992,64,3,0.096025254845551,3.9723367619888e-06
0.73385716049234,-21110863.331689,37490313.381174,0.0019905414930375,6.1794196424452e-05,-7.3385716049234e-05,0.0019907825556584,0.032271966510622,-21110863.33168,37490313.381189,-21110863.3317,37490313.381158,64,3,0.096012971705598,3.9722821493981e-06
0.73584770198538,-21112199.83825,37492559.657021,0.0019903004726152,6.1978893907289e-05,-7.3584770198538e-05,0.0019905414930375,0.032371978620372,-21112199.838241,37492559.657035,-21112199.838261,37492559.657005,64,3,0.096000690020354,3.9722275447521e-06
0.73783800245799,-21113536.206297,37494805.949368,0.0019900594941799,6.2163607882991e-05,-7.3783800245799e-05,0.0019903004726152,0.032471990729479,-21113536.206289,37494805.949383,-21113536.206309,37494805.949352,64,3,0.095988409789763,3.9721729480477e-06
0.73982806195217,-21114872.440587,37497052.25901,0.0019898185575272,6.2348338352625e-05,-7.3982806195217e-05,0.0019900594941799,0.032572002837952,-21114872.440579,37497052.259024,-21114872.440598,37497052.258994,64,3,0.095976131013771,3.9721183592818e-06
0.7418178805097,-21116208.545734,37499298.586719,0.001989577662457,6.2533085317266e-05,-7.418178805097e-05,0.0019898185575272,0.032672014945801,-21116208.545726,37499298.586734,-21116208.545746,37499298.586703,64,3,0.09596385369232,3.9720637784514e-06
0.74380745817216,-21117544.526217,37501544.933247,0.0019893368087766,6.2717848777996e-05,-7.4380745817216e-05,0.001989577662457,0.032772027053036,-21117544.526209,37501544.933261,-21117544.526229,37501544.933231,64,3,0.095951577825351,3.9720092055534e-06
0.74579679498093,-21118880.386387,37503791.299319,0.0019890959962967,6.2902628735904e-05,-7.4579679498093e-05,0.0019893368087766,0.032872039159665,-21118880.386379,37503791.299333,-21118880.386397,37503791.299304,64,3,0.095939303412799,3.9719546405849e-06
0.74778589097723,-21120216.130464,37506037.685644,0.0019888552248356,6.3087425192087e-05,-7.4778589097723e-05,0.0019890959962967,0.032972051265697,-21120216.130456,37506037.685659,-21120216.130475,37506037.685629,64,3,0.095927030454602,3.971900083543e-06
0.74977474620207,-21121551.762548,37508284.092906,0.0019886144942148,6.3272238147649e-05,-7.4977474620207e-05,0.0019888552248356,0.033072063371141,-21121551.76254,37508284.092921,-21121551.76256,37508284.092891,64,3,0.095914758950691,3.971845534425e-06
0.75176336069628,-21122887.286618,37510530.521769,0.0019883738042622,6.34570676037e-05,-7.5176336069628e-05,0.0019886144942148,0.033172075476005,-21122887.286611,37510530.521784,-21122887.286629,37510530.521754,64,3,0.095902488900998,3.9717909932279e-06
0.75375173450054,-21124222.706538,37512776.97288,0.0019881331548102,6.3641913561357e-05,-7.5375173450054e-05,0.0019883738042622,0.033272087580297,-21124222.70653,37512776.972895,-21124222.706549,37512776.972865,64,3,0.095890220305453,3.9717364599492e-06
0.75573986765535,-21125558.026056,37515023.446864,0.0019878925456958,6.3826776021743e-05,-7.5573986765535e-05,0.0019881331548102,0.033372099684025,-21125558.026048,37515023.446879,-21125558.026067,37515023.446849,64,3,0.095877953163982,3.971681934586e-06
0.75772776020105,-21126893.248818,37517269.94433,0.0019876519767611,6.4011654985988e-05,-7.5772776020105e-05,0.0019878925456958,0.033472111787197,-21126893.24881,37517269.944345,-21126893.248828,37517269.944315,64,3,0.095865687476511,3.9716274171358e-06
0.75971541217781,-21128228.378351,37519516.465868,0.0019874114478517,6.4196550455229e-05,-7.5971541217781e-05,0.0019876519767611,0.033572123889819,-21128228.378343,37519516.465883,-21128228.378362,37519516.465853,64,3,0.095853423242962,3.9715729075959e-06
0.76170282362566,-21129563.418092,37521763.01205,0.0019871709588183,6.4381462430606e-05,-7.6170282362566e-05,0.0019874114478517,0.033672135991899,-21129563.418084,37521763.012065,-21129563.418103,37521763.012035,64,3,0.095841160463259,3.9715184059638e-06
0.76368999458448,-21130898.371371,37524009.583431,0.0019869305095157,6.4566390913267e-05,-7.6368999458448e-05,0.0019871709588183,0.033772148093445,-21130898.371363,37524009.583447,-21130898.371382,37524009.583417,64,3,0.09582889913732,3.9714639122369e-06
0.765676925094,-21132233.24142,37526256.180552,0.0019866900998023,6.4751335904365e-05,-7.65676925094e-05,0.0019869305095157,0.033872160194462,-21132233.241412,37526256.180567,-21132233.24143,37526256.180538,64,3,0.095816639265064,3.9714094264128e-06
0.7676636151938,-21133568.031378,37528502.803935,0.0019864497295414,6.4936297405057e-05,-7.676636151938e-05,0.0019866900998023,0.033972172294957,-21133568.03137,37528502.80395,-21133568.031388,37528502.803921,64,3,0.095804380846407,3.971354948489e-06
0.76965006492334,-21134902.744294,37530749.454088,0.0019862093985998,6.5121275416508e-05,-7.6965006492334e-05,0.0019864497295414,0.034072184394937,-21134902.744287,37530749.454102,-21134902.744305,37530749.454073,64,3,0.095792123881265,3.9713004784631e-06
0.77163627432194,-21136237.383129,37532996.131502,0.0019859691068476,6.5306269939886e-05,-7.7163627432194e-05,0.0019862093985998,0.034172196494407,-21136237.38312,37532996.131516,-21136237.38314,37532996.131487,64,3,0.09577986836955,3.9712460163327e-06
0.77362224342879,-21137571.950753,37535242.836656,0.0019857288541585,6.5491280976364e-05,-7.7362224342879e-05,0.0019859691068476,0.034272208593374,-21137571.950745,37535242.836671,-21137571.950764,37535242.836642,64,3,0.095767614311176,3.9711915620955e-06
0.77560797228295,-21138906.449953,37537489.570016,0.0019854886404106,6.5676308527121e-05,-7.7560797228295e-05,0.0019857288541585,0.034372220691844,-21138906.449945,37537489.570031,-21138906.449964,37537489.570002,64,3,0.095755361706051,3.9711371157492e-06
0.77759346092336,-21140240.883439,37539736.33203,0.0019852484654846,6.586135259334e-05,-7.7759346092336e-05,0.0019854886404106,0.034472232789822,-21140240.883431,37539736.332044,-21140240.88345,37539736.332015,64,3,0.095743110554086,3.9710826772916e-06
0.77957870938884,-21141575.253838,37541983.123136,0.0019850083292647,6.6046413176208e-05,-7.7957870938884e-05,0.0019852484654846,0.034572244887313,-21141575.25383,37541983.12315,-21141575.253849,37541983.123122,64,3,0.095730860855188,3.9710282467202e-06
0.78156371771811,-21142909.563702,37544229.943757,0.0019847682316389,6.6231490276916e-05,-7.8156371771811e-05,0.0019850083292647,0.034672256984323,-21142909.563695,37544229.943771,-21142909.563713,37544229.943742,64,3,0.095718612609264,3.9709738240331e-06
0.78354848594974,-21144243.815509,37546476.794304,0.0019845281724969,6.6416583896662e-05,-7.8354848594974e-05,0.0019847682316389,0.034772269080858,-21144243.815502,37546476.794318,-21144243.81552,37546476.79429,64,3,0.095706365816218,3.9709194092279e-06
0.78553301412224,-21145578.01166,37548723.675178,0.001984288151733,6.6601694036645e-05,-7.8553301412224e-05,0.0019845281724969,0.034872281176921,-21145578.011652,37548723.675193,-21145578.011671,37548723.675164,64,3,0.095694120475954,3.9708650023026e-06
0.78751730227397,-21146912.154492,37550970.586765,0.0019840481692436,6.6786820698071e-05,-7.8751730227397e-05,0.001984288151733,0.034972293272519,-21146912.154485,37550970.586779,-21146912.154504,37550970.586751,64,3,0.095681876588376,3.9708106032549e-06
0.78950135044322,-21148246.246273,37553217.52944,0.001983808224929,6.6971963882146e-05,-7.8950135044322e-05,0.0019840481692436,0.035072305367655,-21148246.246266,37553217.529454,-21148246.246284,37553217.529427,64,3,0.095669634153384,3.9707562120829e-06
0.79148515866815,-21149580.289201,37555464.50357,0.0019835683186897,6.7157123590084e-05,-7.9148515866815e-05,0.001983808224929,0.035172317462335,-21149580.289194,37555464.503584,-21149580.289212,37555464.503556,64,3,0.095657393170879,3.9707018287845e-06
0.79346872698684,-21150914.285411,37557711.509507,0.0019833284504318,6.73422998231e-05,-7.9346872698684e-05,0.0019835683186897,0.035272329556562,-21150914.285404,37557711.509521,-21150914.285422,37557711.509492,64,3,0.09564515364076,3.9706474533575e-06
0.79545205543727,-21152248.236981,37559958.547594,0.0019830886200626,6.7527492582413e-05,-7.9545205543727e-05,0.0019833284504318,0.035372341650342,-21152248.236973,37559958.547608,-21152248.236992,37559958.54758,64,3,0.095632915562925,3.9705930858e-06
0.79743514405733,-21153582.145919,37562205.618165,0.0019828488274922,6.7712701869248e-05,-7.9743514405733e-05,0.0019830886200626,0.035472353743677,-21153582.145911,37562205.618179,-21153582.145929,37562205.618151,64,3,0.095620678937272,3.97053872611e-06
0.79941799288482,-21154916.014183,37564452.721543,0.0019826090726331,6.7897927684829e-05,-7.9941799288482e-05,0.0019828488274922,0.035572365836573,-21154916.014175,37564452.721557,-21154916.014193,37564452.721529,64,3,0.095608443763696,3.9704843742856e-06
0.80140060195746,-21156249.843668,37566699.858042,0.0019823693554003,6.8083170030387e-05,-8.0140060195746e-05,0.0019826090726331,0.035672377929033,-21156249.843661,37566699.858056,-21156249.843679,37566699.858027,64,3,0.095596210042092,3.9704300303247e-06
0.80338297131286,-21157583.636218,37568947.027965,0.0019821296757107,6.8268428907154e-05,-8.0338297131286e-05,0.0019823693554003,0.035772390021062,-21157583.636212,37568947.027979,-21157583.636229,37568947.027951,64,3,0.095583977772355,3.9703756942255e-06
0.80536510098857,-21158917.393621,37571194.231608,0.0019818900334843,6.8453704316367e-05,-8.0536510098857e-05,0.0019821296757107,0.035872402112662,-21158917.393613,37571194.231623,-21158917.393631,37571194.231595,64,3,0.095571746954378,3.970321365986e-06
0.80734699102205,-21160251.117612,37573441.469257,0.0019816504286427,6.8638996259265e-05,-8.0734699102205e-05,0.0019818900334843,0.035972414203838,-21160251.117605,37573441.469271,-21160251.117622,37573441.469242,64,3,0.095559517588053,3.9702670456044e-06
0.80932864145069,-21161584.809875,37575688.74119,0.0019814108611096,6.882430473709e-05,-8.0932864145069e-05,0.0019816504286427,0.036072426294592,-21161584.809868,37575688.741204,-21161584.809886,37575688.741175,64,3,0.095547289673271,3.9702127330788e-06
0.8113100523118,-21162918.47205,37577936.047675,0.0019811713308107,6.9009629751086e-05,-8.113100523118e-05,0.0019814108611096,0.036172438384929,-21162918.472043,37577936.047689,-21162918.47206,37577936.047661,64,3,0.095535063209923,3.9701584284074e-06
0.81329122364262,-21164252.105722,37580183.388975,0.0019809318376742,6.9194971302501e-05,-8.1329122364262e-05,0.0019811713308107,0.036272450474852,-21164252.105715,37580183.38899,-21164252.105733,37580183.388961,64,3,0.095522838197899,3.9701041315884e-06
0.81527215548029,-21165585.712436,37582430.765343,0.0019806923816298,6.9380329392586e-05,-8.1527215548029e-05,0.0019809318376742,0.036372462564364,-21165585.712429,37582430.765357,-21165585.712446,37582430.765329,64,3,0.095510614637088,3.9700498426199e-06
0.81725284786192,-21166919.293686,37584678.177025,0.0019804529626086,6.9565704022594e-05,-8.1725284786192e-05,0.0019806923816298,0.036472474653467,-21166919.293678,37584678.17704,-21166919.293696,37584678.177012,64,3,0.095498392527377,3.9699955615002e-06
0.81923330082453,-21168252.850928,37586925.624259,0.0019802135805451,6.975109519378e-05,-8.1923330082453e-05,0.0019804529626086,0.036572486742166,-21168252.850921,37586925.624274,-21168252.850939,37586925.624246,64,3,0.095486171868655,3.9699412882274e-06
0.82121351440507,-21169586.385573,37589173.107277,0.0019799742353744,6.9936502907404e-05,-8.2121351440507e-05,0.0019802135805451,0.036672498830463,-21169586.385565,37589173.107291,-21169586.385583,37589173.107263,64,3,0.095473952660808,3.9698870228e-06
0.82319348864045,-21170919.898988,37591420.626304,0.001979734927033,7.0121927164724e-05,-8.2319348864045e-05,0.0019799742353744,0.036772510918361,-21170919.898982,37591420.626318,-21170919.898998,37591420.626291,64,3,0.095461734903722,3.969832765216e-06
0.82517322356748,-21172253.392507,37593668.181557,0.0019794956554591,7.0307367967005e-05,-8.2517322356748e-05,0.001979734927033,0.036872523005862,-21172253.3925,37593668.181571,-21172253.392517,37593668.181544,64,3,0.095449518597282,3.9697785154739e-06
0.82715271922294,-21173586.867416,37595915.773249,0.0019792564205945,7.0492825315511e-05,-8.2715271922294e-05,0.0019794956554591,0.03697253509297,-21173586.867409,37595915.773263,-21173586.867426,37595915.773236,64,3,0.095437303741373,3.9697242735718e-06
0.82913197564353,-21174920.324973,37598163.401582,0.0019790172223802,7.067829921151e-05,-8.2913197564353e-05,0.0019792564205945,0.037072547179687,-21174920.324966,37598163.401596,-21174920.324983,37598163.401569,64,3,0.095425090335878,3.9696700395082e-06
0.83111099286591,-21176253.766392,37600411.066757,0.0019787780607596,7.0863789656271e-05,-8.3111099286591e-05,0.0019790172223802,0.037172559266015,-21176253.766385,37600411.066771,-21176253.766403,37600411.066743,64,3,0.095412878380682,3.9696158132814e-06
0.83308977092667,-21177587.192855,37602658.768965,0.0019785389356776,7.1049296651067e-05,-8.3308977092667e-05,0.0019787780607596,0.037272571351957,-21177587.192847,37602658.76898,-21177587.192865,37602658.768952,64,3,0.095400667875667,3.9695615948896e-06
0.83506830986235,-21178920.605509,37604906.508394,0.0019782998470809,7.1234820197171e-05,-8.3506830986235e-05,0.0019785389356776,0.037372583437516,-21178920.605502,37604906.508408,-21178920.60552,37604906.50838,64,3,0.095388458820714,3.9695073843313e-06
0.83704660970943,-21180254.005466,37607154.285225,0.0019780607949169,7.142036029586e-05,-8.3704660970943e-05,0.0019782998470809,0.037472595522694,-21180254.005459,37607154.285239,-21180254.005476,37607154.285211,64,3,0.095376251215706,3.9694531816048e-06
0.83902467050435,-21181587.393808,37609402.099633,0.0019778217791346,7.160591694841e-05,-8.3902467050435e-05,0.0019780607949169,0.037572607607492,-21181587.393801,37609402.099646,-21181587.393819,37609402.099619,64,3,0.095364045060524,3.9693989867085e-06
0.84100249228348,-21182920.771584,37611649.951788,0.0019775827996846,7.1791490156101e-05,-8.4100249228348e-05,0.0019778217791346,0.037672619691914,-21182920.771577,37611649.951802,-21182920.771594,37611649.951775,64,3,0.095351840355047,3.9693447996409e-06
0.84298007508317,-21184254.139811,37613897.841857,0.0019773438565188,7.1977079920216e-05,-8.4298007508317e-05,0.0019775827996846,0.03777263177596,-21184254.139804,37613897.841871,-21184254.139821,37613897.841844,64,3,0.095339637099157,3.9692906204002e-06
0.84495741893969,-21185587.499481,37616145.769999,0.0019771049495898,7.2162686242037e-05,-8.4495741893969e-05,0.0019773438565188,0.037872643859635,-21185587.499473,37616145.770012,-21185587.499491,37616145.769985,64,3,0.095327435292731,3.969236448985e-06
0.84693452388928,-21186920.851552,37618393.736369,0.001976866078852,7.2348309122849e-05,-8.4693452388928e-05,0.0019771049495898,0.037972655942938,-21186920.851545,37618393.736383,-21186920.851562,37618393.736355,64,3,0.09531523493565,3.9691822853937e-06
0.84891138996813,-21188254.196953,37620641.74112,0.0019766272442602,7.2533948563939e-05,-8.4891138996813e-05,0.001976866078852,0.038072668025873,-21188254.196946,37620641.741134,-21188254.196963,37620641.741107,64,3,0.095303036027792,3.9691281296247e-06
0.85088801721239,-21189587.536596,37622889.784394,0.0019763884457715,7.2719604566595e-05,-8.5088801721239e-05,0.0019766272442602,0.038172680108442,-21189587.536588,37622889.784407,-21189587.536606,37622889.784381,64,3,0.095290838569034,3.9690739816765e-06
0.85286440565816,-21190920.871353,37625137.866337,0.0019761496833428,7.2905277132109e-05,-8.5286440565816e-05,0.0019763884457715,0.038272692190645,-21190920.871345,37625137.86635,-21190920.871363,37625137.866324,64,3,0.095278642559253,3.9690198415475e-06
0.8548405553415,-21192254.202078,37627385.987084,0.0019759109569333,7.309096626177e-05,-8.548405553415e-05,0.0019761496833428,0.038372704272485,-21192254.202071,37627385.987097,-21192254.202088,37627385.98707,64,3,0.095266447998329,3.9689657092362e-06
0.85681646629844,-21193587.529601,37629634.146768,0.0019756722665022,7.3276671956872e-05,-8.5681646629844e-05,0.0019759109569333,0.038472716353964,-21193587.529594,37629634.146781,-21193587.52961,37629634.146754,64,3,0.095254254886135,3.9689115847412e-06
0.85879213856494,-21194920.854723,37631882.345517,0.0019754336120104,7.3462394218711e-05,-8.5879213856494e-05,0.0019756722665022,0.038572728435083,-21194920.854716,37631882.34553,-21194920.854733,37631882.345504,64,3,0.09524206322255,3.9688574680609e-06
0.86076757217695,-21196254.178225,37634130.583459,0.0019751949934195,7.3648133048581e-05,-8.6076757217695e-05,0.0019754336120104,0.038672740515843,-21196254.178218,37634130.583472,-21196254.178235,37634130.583446,64,3,0.095229873007449,3.9688033591938e-06
0.86274276717037,-21197587.500867,37636378.860713,0.0019749564106917,7.383388844778e-05,-8.6274276717037e-05,0.0019751949934195,0.038772752596248,-21197587.50086,37636378.860726,-21197587.500877,37636378.8607,64,3,0.095217684240706,3.9687492581384e-06
0.86471772358106,-21198920.823378,37638627.177398,0.0019747178637911,7.4019660417607e-05,-8.6471772358106e-05,0.0019749564106917,0.038872764676297,-21198920.823372,37638627.17741,-21198920.823388,37638627.177385,64,3,0.095205496922198,3.9686951648933e-06
0.86669244144485,-21200254.146477,37640875.533626,0.0019744793526818,7.4205448959363e-05,-8.6669244144485e-05,0.0019747178637911,0.038972776755993,-21200254.146469,37640875.533638,-21200254.146486,37640875.533613,64,3,0.095193311051799,3.968641079457e-06
0.86866692079753,-21201587.470854,37643123.929508,0.0019742408773292,7.4391254074348e-05,-8.6866692079753e-05,0.0019744793526818,0.039072788835337,-21201587.470847,37643123.92952,-21201587.470864,37643123.929495,64,3,0.095181126629383,3.968587001828e-06
0.87064116167486,-21202920.797181,37645372.365151,0.0019740024376991,7.4577075763866e-05,-8.7064116167486e-05,0.0019742408773292,0.039172800914331,-21202920.797174,37645372.365163,-21202920.797192,37645372.365139,64,3,0.095168943654824,3.968532932005e-06
0.87261516411256,-21204254.126114,37647620.840658,0.001973764033759,7.4762914029219e-05,-8.7261516411256e-05,0.0019740024376991,0.039272812992975,-21204254.126108,37647620.84067,-21204254.126124,37647620.840646,64,3,0.095156762127996,3.9684788699864e-06
0.87458892814632,-21205587.458286,37649869.35613,0.0019735256654764,7.4948768871714e-05,-8.7458892814632e-05,0.001973764033759,0.039372825071271,-21205587.458279,37649869.356143,-21205587.458297,37649869.356117,64,3,0.095144582048773,3.9684248157708e-06
0.8765624538118,-21206920.79431,37652117.911664,0.0019732873328197,7.5134640292657e-05,-8.765624538118e-05,0.0019735256654764,0.03947283714922,-21206920.794304,37652117.911677,-21206920.79432,37652117.911652,64,3,0.095132403417026,3.9683707693568e-06
0.87853574114462,-21208254.134785,37654366.507355,0.001973049035758,7.5320528293355e-05,-8.7853574114462e-05,0.0019732873328197,0.039572849226825,-21208254.134779,37654366.507368,-21208254.134796,37654366.507343,64,3,0.095120226232629,3.968316730743e-06
0.88050879018037,-21209587.480291,37656615.143294,0.0019728107742612,7.5506432875116e-05,-8.8050879018037e-05,0.001973049035758,0.039672861304085,-21209587.480284,37656615.143307,-21209587.4803,37656615.143281,64,3,0.095108050495454,3.9682626999279e-06
0.88248160095464,-21210920.831389,37658863.819569,0.0019725725483004,7.569235403925e-05,-8.8248160095464e-05,0.0019728107742612,0.039772873381002,-21210920.831383,37658863.819581,-21210920.8314,37658863.819557,64,3,0.095095876205373,3.9682086769103e-06
0.88445417350294,-21212254.188627,37661112.536266,0.0019723343578467,7.5878291787069e-05,-8.8445417350294e-05,0.0019725725483004,0.039872885457578,-21212254.18862,37661112.536278,-21212254.188636,37661112.536254,64,3,0.095083703362259,3.9681546616886e-06
0.88642650786078,-21213587.552535,37663361.293467,0.0019720962028725,7.6064246119882e-05,-8.8642650786078e-05,0.0019723343578467,0.039972897533812,-21213587.552528,37663361.29348,-21213587.552544,37663361.293455,64,3,0.095071531965982,3.9681006542615e-06
0.88839860406366,-21214920.923628,37665610.091252,0.00197185808335,7.6250217039004e-05,-8.8839860406366e-05,0.0019720962028725,0.040072909609708,-21214920.923621,37665610.091265,-21214920.923638,37665610.091241,64,3,0.095059362016413,3.9680466546275e-06
0.89037046214701,-21216254.302405,37667858.929701,0.0019716199992529,7.6436204545748e-05,-8.9037046214701e-05,0.00197185808335,0.040172921685264,-21216254.302399,37667858.929713,-21216254.302415,37667858.929688,64,3,0.095047193513425,3.9679926627854e-06
0.89234208214626,-21217587.689353,37670107.808887,0.0019713819505549,7.6622208641428e-05,-8.9234208214626e-05,0.0019716199992529,0.040272933760483,-21217587.689346,37670107.808899,-21217587.689363,37670107.808875,64,3,0.095035026456887,3.9679386787338e-06
0.89431346409681,-21218921.084943,37672356.728885,0.0019711439372306,7.680822932736e-05,-8.9431346409681e-05,0.0019713819505549,0.040372945835366,-21218921.084936,37672356.728897,-21218921.084952,37672356.728871,64,3,0.09502286084667,3.9678847024712e-06
0.89628460803404,-21220254.489627,37674605.689765,0.0019709059592546,7.6994266604861e-05,-8.9628460803404e-05,0.0019711439372306,0.040472957909913,-21220254.48962,37674605.689777,-21220254.489637,37674605.689752,64,3,0.095010696682645,3.9678307339964e-06
0.8982555139933,-21221587.903855,37676854.691594,0.0019706680166032,7.7180320475247e-05,-8.982555139933e-05,0.0019709059592546,0.040572969984126,-21221587.903848,37676854.691606,-21221587.903865,37676854.691581,64,3,0.094998533964681,3.9677767733079e-06
0.9002261820099,-21222921.328055,37679103.734438,0.0019704301092522,7.7366390939837e-05,-9.002261820099e-05,0.0019706680166032,0.040672982058005,-21222921.328047,37679103.73445,-21222921.328065,37679103.734425,64,3,0.094986372692649,3.9677228204045e-06
0.90219661211915,-21224254.762645,37681352.818363,0.0019701922371786,7.7552477999949e-05,-9.0219661211915e-05,0.0019704301092522,0.040772994131551,-21224254.762638,37681352.818375,-21224254.762655,37681352.81835,64,3,0.094974212866417,3.9676688752847e-06
0.90416680435633,-21225588.208032,37683601.94343,0.0019699544003597,7.7738581656905e-05,-9.0416680435633e-05,0.0019701922371786,0.040873006204765,-21225588.208025,37683601.943441,-21225588.208041,37683601.943416,64,3,0.094962054485855,3.9676149379473e-06
0.90613675875669,-21226921.664608,37685851.109699,0.0019697165987724,7.7924701912023e-05,-9.0613675875669e-05,0.0019699544003597,0.040973018277648,-21226921.664601,37685851.10971,-21226921.664618,37685851.109686,64,3,0.094949897550833,3.9675610083909e-06
0.90810647535546,-21228255.132759,37688100.317228,0.0019694788323955,7.8110838766627e-05,-9.0810647535546e-05,0.0019697165987724,0.041073030350201,-21228255.132752,37688100.31724,-21228255.132768,37688100.317215,64,3,0.09493774206122,3.9675070866142e-06
0.91007595418786,-21229588.612853,37690349.566073,0.0019692411012076,7.8296992222037e-05,-9.1007595418786e-05,0.0019694788323955,0.041173042422424,-21229588.612846,37690349.566085,-21229588.612862,37690349.566061,64,3,0.094925588016883,3.9674531726158e-06
0.91204519528907,-21230922.105249,37692598.856288,0.0019690034051879,7.8483162279577e-05,-9.1204519528907e-05,0.0019692411012076,0.041273054494318,-21230922.105243,37692598.8563,-21230922.105259,37692598.856276,64,3,0.094913435417693,3.9673992663945e-06
0.91401419869426,-21232255.610302,37694848.187926,0.0019687657443156,7.8669348940569e-05,-9.1401419869426e-05,0.0019690034051879,0.041373066565885,-21232255.610295,37694848.187937,-21232255.610311,37694848.187913,64,3,0.094901284263517,3.9673453679489e-06
0.91598296443857,-21233589.128345,37697097.561037,0.0019685281185711,7.885555220634e-05,-9.1598296443857e-05,0.0019687657443156,0.041473078637124,-21233589.128339,37697097.561049,-21233589.128355,37697097.561024,64,3,0.094889134554224,3.9672914772777e-06
0.91795149255714,-21234922.659713,37699346.97567,0.001968290527935,7.9041772078212e-05,-9.1795149255714e-05,0.0019685281185711,0.041573090708037,-21234922.659706,37699346.975682,-21234922.659723,37699346.975658,64,3,0.094876986289681,3.9672375943796e-06
0.91991978308508,-21236256.204723,37701596.431874,0.001968052972387,7.9228008557513e-05,-9.1991978308508e-05,0.001968290527935,0.041673102778623,-21236256.204716,37701596.431885,-21236256.204733,37701596.431862,64,3,0.094864839469757,3.9671837192533e-06
0.92188783605746,-21237589.763686,37703845.929694,0.0019678154519094,7.9414261645569e-05,-9.2188783605746e-05,0.001968052972387,0.041773114848885,-21237589.763679,37703845.929704,-21237589.763696,37703845.929681,64,3,0.094852694094319,3.9671298518976e-06
0.92385565150937,-21238923.336903,37706095.469174,0.0019675779664825,7.9600531343706e-05,-9.2385565150937e-05,0.0019678154519094,0.041873126918822,-21238923.336896,37706095.469185,-21238923.336912,37706095.469161,64,3,0.094840550163236,3.967075992311e-06
0.92582322947586,-21240256.924667,37708345.050357,0.0019673405160899,7.9786817653251e-05,-9.2582322947586e-05,0.0019675779664825,0.041973138988435,-21240256.92466,37708345.050368,-21240256.924678,37708345.050344,64,3,0.094828407676374,3.9670221404924e-06
0.92779056999195,-21241590.527261,37710594.673284,0.0019671031007126,7.9973120575534e-05,-9.2779056999195e-05,0.0019673405160899,0.042073151057725,-21241590.527254,37710594.673295,-21241590.527271,37710594.673271,64,3,0.094816266633601,3.9669682964404e-06
0.92975767309266,-21242924.14496,37712844.337995,0.0019668657203334,8.0159440111883e-05,-9.2975767309266e-05,0.0019671031007126,0.042173163126692,-21242924.144954,37712844.338007,-21242924.14497,37712844.337984,64,3,0.094804127034784,3.9669144601537e-06
0.93172453881299,-21244257.778033,37715094.04453,0.0019666283749357,8.0345776263626e-05,-9.3172453881299e-05,0.0019668657203334,0.042273175195336,-21244257.778025,37715094.044542,-21244257.778043,37715094.044518,64,3,0.09479198887979,3.9668606316311e-06
0.93369116718793,-21245591.426738,37717343.792924,0.0019663910645028,8.0532129032095e-05,-9.3369116718793e-05,0.0019666283749357,0.042373187263659,-21245591.426731,37717343.792936,-21245591.426748,37717343.792913,64,3,0.094779852168486,3.9668068108714e-06
0.93565755825243,-21246925.091328,37719593.583215,0.0019661537890176,8.071849841862e-05,-9.3565755825243e-05,0.0019663910645028,0.042473199331661,-21246925.091321,37719593.583226,-21246925.091339,37719593.583203,64,3,0.094767716900739,3.9667529978731e-06
0.93762371204145,-21248258.772045,37721843.415436,0.0019659165484647,8.0904884424531e-05,-9.3762371204145e-05,0.0019661537890176,0.042573211399343,-21248258.772038,37721843.415448,-21248258.772056,37721843.415425,64,3,0.094755583076415,3.9666991926351e-06
0.93958962858991,-21249592.46913,37724093.289622,0.0019656793428282,8.109128705116e-05,-9.3958962858991e-05,0.0019659165484647,0.042673223466704,-21249592.469123,37724093.289634,-21249592.469141,37724093.289611,64,3,0.094743450695381,3.9666453951561e-06
0.94155530793274,-21250926.182809,37726343.205804,0.0019654421720928,8.1277706299839e-05,-9.4155530793274e-05,0.0019656793428282,0.042773235533746,-21250926.182803,37726343.205816,-21250926.18282,37726343.205793,64,3,0.094731319757504,3.9665916054348e-06
0.94352075010483,-21252259.91331,37728593.164014,0.0019652050362428,8.1464142171901e-05,-9.4352075010483e-05,0.0019654421720928,0.042873247600469,-21252259.913304,37728593.164026,-21252259.91332,37728593.164003,64,3,0.094719190262649,3.9665378234699e-06
0.94548595514108,-21253593.660846,37730843.164283,0.0019649679352631,8.1650594668679e-05,-9.4548595514108e-05,0.0019652050362428,0.042973259666873,-21253593.660838,37730843.164295,-21253593.660856,37730843.164272,64,3,0.094707062210683,3.9664840492603e-06
0.94745092307634,-21254927.425629,37733093.206638,0.0019647308691398,8.1837063791507e-05,-9.4745092307634e-05,0.0019649679352631,0.043073271732959,-21254927.425623,37733093.20665,-21254927.425638,37733093.206626,64,3,0.094694935601473,3.9664302828046e-06
0.94941565394548,-21256261.207863,37735343.291109,0.0019644938378578,8.2023549541718e-05,-9.4941565394548e-05,0.0019647308691398,0.043173283798727,-21256261.207856,37735343.29112,-21256261.207872,37735343.291097,64,3,0.094682810434883,3.9663765241016e-06
0.95138014778334,-21257595.007745,37737593.417722,0.0019642568414032,8.2210051920647e-05,-9.5138014778334e-05,0.0019644938378578,0.043273295864179,-21257595.007739,37737593.417734,-21257595.007755,37737593.417711,64,3,0.09467068671078,3.96632277315e-06
0.95334440462474,-21258928.825468,37739843.586503,0.0019640198797619,8.2396570929628e-05,-9.5334440462474e-05,0.0019642568414032,0.043373307929313,-21258928.825461,37739843.586514,-21258928.825477,37739843.586491,64,3,0.09465856442903,3.9662690299487e-06
0.9553084245045,-21260262.661218,37742093.797476,0.0019637829529207,8.2583106569998e-05,-9.553084245045e-05,0.0019640198797619,0.043473319994131,-21260262.661211,37742093.797487,-21260262.661228,37742093.797464,64,3,0.094646443589498,3.9662152944962e-06
0.95727220745742,-21261596.515178,37744344.050666,0.0019635460608658,8.2769658843092e-05,-9.5727220745742e-05,0.0019637829529207,0.043573332058632,-21261596.515171,37744344.050677,-21261596.515187,37744344.050654,64,3,0.09463432419205,3.9661615667915e-06
0.95923575351829,-21262930.387522,37746594.346096,0.0019633092035841,8.2956227750246e-05,-9.5923575351829e-05,0.0019635460608658,0.043673344122818,-21262930.387516,37746594.346108,-21262930.387532,37746594.346085,64,3,0.094622206236551,3.9661078468333e-06
0.96119906272187,-21264264.27842,37748844.68379,0.0019630723810621,8.3142813292797e-05,-9.6119906272187e-05,0.0019633092035841,0.043773356186689,-21264264.278414,37748844.683801,-21264264.27843,37748844.683778,64,3,0.094610089722867,3.9660541346203e-06
0.96316213510294,-21265598.188038,37751095.063766,0.0019628355932877,8.3329415472082e-05,-9.6316213510294e-05,0.0019630723810621,0.043873368250245,-21265598.188031,37751095.063777,-21265598.188048,37751095.063754,64,3,0.094597974650864,3.9660004301512e-06
0.96512497069622,-21266932.116538,37753345.486046,0.0019625988402478,8.3516034289438e-05,-9.6512497069622e-05,0.0019628355932877,0.043973380313486,-21266932.116531,37753345.486057,-21266932.116547,37753345.486034,64,3,0.094585861020406,3.965946733425e-06
0.96708756953647,-21268266.064074,37755595.950651,0.0019623621219299,8.3702669746205e-05,-9.6708756953647e-05,0.0019625988402478,0.044073392376414,-21268266.064068,37755595.950663,-21268266.064084,37755595.95064,64,3,0.094573748831358,3.9658930444402e-06
0.9690499316584,-21269600.030795,37757846.457599,0.0019621254383226,8.3889321843718e-05,-9.690499316584e-05,0.0019623621219299,0.044173404439027,-21269600.030789,37757846.45761,-21269600.030806,37757846.457587,64,3,0.094561638083586,3.9658393631958e-06
0.97101205709672,-21270934.016852,37760097.006908,0.001961888789413,8.4075990583318e-05,-9.7101205709672e-05,0.0019621254383226,0.044273416501326,-21270934.016846,37760097.006919,-21270934.016863,37760097.006897,64,3,0.094549528776955,3.9657856896904e-06
0.97297394588614,-21272268.022385,37762347.598597,0.0019616521751895,8.4262675966344e-05,-9.7297394588614e-05,0.001961888789413,0.044373428563313,-21272268.022379,37762347.598608,-21272268.022394,37762347.598585,64,3,0.094537420911329,3.9657320239228e-06
0.97493559806133,-21273602.047531,37764598.232682,0.0019614155956405,8.4449377994134e-05,-9.7493559806133e-05,0.0019616521751895,0.044473440624986,-21273602.047525,37764598.232693,-21273602.04754,37764598.232671,64,3,0.094525314486574,3.9656783658919e-06
0.97689701365697,-21274936.092426,37766848.909178,0.0019611790507544,8.4636096668028e-05,-9.7689701365697e-05,0.0019614155956405,0.044573452686347,-21274936.09242,37766848.90919,-21274936.092436,37766848.909167,64,3,0.094513209502554,3.9656247155964e-06
0.97885819270772,-21276270.157197,37769099.628102,0.0019609425405202,8.4822831989367e-05,-9.7885819270772e-05,0.0019611790507544,0.044673464747395,-21276270.157191,37769099.628113,-21276270.157207,37769099.628091,64,3,0.094501105959134,3.965571073035e-06
0.98081913524824,-21277604.241971,37771350.389468,0.0019607060649263,8.5009583959491e-05,-9.8081913524824e-05,0.0019609425405202,0.044773476808131,-21277604.241964,37771350.389479,-21277604.24198,37771350.389456,64,3,0.094489003856179,3.9655174382066e-06
0.98277984131317,-21278938.346872,37773601.193289,0.001960469623962,8.519635257974e-05,-9.8277984131317e-05,0.0019607060649263,0.044873488868556,-21278938.346865,37773601.1933,-21278938.346881,37773601.193278,64,3,0.094476903193553,3.9654638111099e-06
0.98474031093713,-21280272.472018,37775852.039581,0.0019602332176162,8.5383137851456e-05,-9.8474031093713e-05,0.001960469623962,0.044973500928669,-21280272.472012,37775852.039593,-21280272.472027,37775852.03957,64,3,0.094464803971121,3.9654101917438e-06
0.98670054415475,-21281606.617521,37778102.928356,0.0019599968458784,8.5569939775981e-05,-9.8670054415475e-05,0.0019602332176162,0.04507351298847,-21281606.617514,37778102.928367,-21281606.617531,37778102.928345,64,3,0.094452706188748,3.9653565801069e-06
0.98866054100062,-21282940.783497,37780353.859625,0.0019597605087374,8.5756758354655e-05,-9.8866054100062e-05,0.0019599968458784,0.045173525047961,-21282940.78349,37780353.859637,-21282940.783506,37780353.859614,64,3,0.094440609846297,3.9653029761982e-06
0.99062030150936,-21284274.970049,37782604.833402,0.0019595242061837,8.5943593588821e-05,-9.9062030150936e-05,0.0019597605087374,0.045273537107141,-21284274.970043,37782604.833413,-21284274.970059,37782604.83339,64,3,0.094428514943633,3.9652493800164e-06
0.99257982571555,-21285609.177287,37784855.849696,0.0019592879382062,8.6130445479822e-05,-9.9257982571555e-05,0.0019595242061837,0.04537354916601,-21285609.17728,37784855.849708,-21285609.177296,37784855.849685,64,3,0.094416421480621,3.9651957915602e-06
0.99453911365375,-21286943.405308,37787106.908519,0.0019590517047953,8.6317314028999e-05,-9.9453911365375e-05,0.0019592879382062,0.045473561224569,-21286943.405301,37787106.908531,-21286943.405317,37787106.908508,64,3,0.094404329457125,3.9651422108285e-06
0.99649816535855,-21288277.654213,37789358.009882,0.0019588155059412,8.6504199237696e-05,-9.9649816535855e-05,0.0019590517047953,0.045573573282818,-21288277.654207,37789358.009893,-21288277.654223,37789358.009871,64,3,0.094392238873009,3.96508863782e-06
0.99845698086449,-21289611.924099,37791609.153793,0.0019585793416324,8.6691101107256e-05,-9.9845698086449e-05,0.0019588155059412,0.045673585340757,-21289611.924092,37791609.153804,-21289611.924108,37791609.153781,64,3,0.094380149728137,3.9650350725336e-06
1.0004155602061,-21194461.374333,37600172.027559,0.0019906305051126,8.6856965481663e-05,-0.0001,0.0019585793416324,0.045771975239666,-21194461.374327,37600172.027569,-21194461.374344,37600172.027553,64,3,0.094368247463294,3.9650282344151e-06
1.0024061907112,-20739561.667789,36687592.063023,0.0021488904498322,8.6944967535473e-05,-0.0001,0.0019906305051126,0.045864610511286,-20739561.667564,36687592.063405,-20739561.667985,36687592.062712,41,2,0.094357000249082,3.9651954383173e-06
1.0045550811611,-20281656.985502,35773237.622429,0.002310723068475,8.7033573453e-05,-0.0001,0.0021488904498322,0.045957606962442,-20281656.985268,35773237.622824,-20281656.985706,35773237.622114,41,2,0.094345686752008,3.9653637895606e-06
1.0068658042295,-19823457.634551,34862583.787041,0.0024898994597729,8.712225565443e-05,-0.0001,0.002310723068475,0.046050410832867,-19823457.63431,34862583.787443,-19823457.634761,34862583.786722,41,2,0.094334372558525,3.9655322857434e-06
1.0093557036893,-19364736.60147,33955214.24882,0.0026872644480843,8.7211059175198e-05,-0.0001,0.0024898994597729,0.046143066375622,-19364736.601221,33955214.249229,-19364736.601685,33955214.248499,41,2,0.094323052534144,3.9657010124328e-06
1.0120429681374,-18905540.153353,33051257.946142,0.0029052760654437,8.7299975811005e-05,-0.0001,0.0026872644480843,0.046235562385894,-18905540.153096,33051257.946559,-18905540.153574,33051257.945819,41,2,0.0943117281406,3.9658699540408e-06
1.0149482442028,-18445891.135408,32150796.910511,0.0031466203744773,8.7389001984645e-05,-0.0001,0.0029052760654437,0.046327892432723,-18445891.135142,32150796.910935,-18445891.135635,32150796.910185,41,2,0.094300400302378,3.9660391037708e-06
1.0180948645773,-17985817.284578,31253922.387881,0.0034144238312368,8.7478133227165e-05,-0.0001,0.0031466203744773,0.046420049134111,-17985817.284303,31253922.388312,-17985817.284809,31253922.387553,41,2,0.094289070089016,3.9662084531315e-06
1.0215092884086,-17525348.736243,30360729.788964,0.0037123175056826,8.7567364670146e-05,-0.0001,0.0034144238312368,0.04651202466761,-17525348.73596,30360729.7894,-17525348.736481,30360729.788632,41,2,0.094277738657792,3.9663779928732e-06
1.0252216059142,-17064518.55364,29471319.594917,0.0040445354803191,8.7656690948598e-05,-0.0001,0.0037123175056826,0.0466038106718,-17064518.553348,29471319.595356,-17064518.553889,29471319.594583,41,2,0.094266407269183,3.9665477128023e-06
1.0292661413946,-16603362.988754,28585797.716717,0.0044160328733897,8.7746106156971e-05,-0.0001,0.0040445354803191,0.046695398202872,-16603362.988453,28585797.717159,-16603362.989025,28585797.71638,41,2,0.094255077296187,3.9667176016982e-06
1.0336821742679,-16141921.807797,27704275.960258,0.0048326309581526,8.7835603793344e-05,-0.0001,0.0044160328733897,0.046786777679421,-16141921.807487,27704275.960701,-16141921.808092,27704275.95992,41,2,0.094243750235548,3.9668876472073e-06
1.0385148052261,-15680238.652367,26826872.537666,0.0053011961579851,8.792517669752e-05,-0.0001,0.0048326309581526,0.046877938821431,-15680238.652047,26826872.538107,-15680238.652688,26826872.537328,41,2,0.094232427720217,3.9670578357252e-06
1.0438160013841,-15218361.445439,25953712.639161,0.0058298620144374,8.8014816981364e-05,-0.0001,0.0053011961579851,0.046968870581814,-15218361.44511,25953712.639598,-15218361.445788,25953712.638822,41,2,0.094221111533337,3.9672281522645e-06
1.0496458633985,-14756342.848278,25084929.073481,0.006428305947309,8.8104515950345e-05,-0.0001,0.0058298620144374,0.047059561069495,-14756342.847471,25084929.074297,-14756342.849218,25084929.072758,40,2,0.094209803623944,3.9673985803055e-06
1.0560741693458,-14294240.776276,24220662.987079,0.0071080963235977,8.8194264014841e-05,-0.0001,0.006428305947309,0.047149997462776,-14294240.775417,24220662.987934,-14294240.777269,24220662.986365,40,2,0.094198506124654,3.967569101628e-06
1.0631822656694,-13832118.981811,23361064.674009,0.007883130319696,8.828405058986e-05,-0.0001,0.0071080963235977,0.047240165911524,-13832118.980888,23361064.674909,-13832118.982858,23361064.673304,40,2,0.094187221371617,3.9677396961205e-06
1.0710653959891,-13370047.716168,22506294.491227,0.0087701898736104,8.837386398098e-05,-0.0001,0.007883130319696,0.047330051426335,-13370047.715183,22506294.492177,-13370047.717271,22506294.490532,40,2,0.094175951927095,3.9679103415636e-06
1.0798355858627,-12908104.481841,21656523.89539,0.0097896523125495,8.8463691254587e-05,-0.0001,0.0087701898736104,0.047419637752707,-12908104.480795,21656523.896397,-12908104.482999,21656523.894703,40,2,0.094164700605079,3.9680810133835e-06
1.0896252381753,-12446374.890819,20811936.621657,0.010966405159647,8.8553518089616e-05,-0.0001,0.0097896523125495,0.047508907227674,-12446374.89023,20811936.623062,-12446374.891506,20811936.620728,41,2,0.094153470500411,3.9682516843701e-06
1.1005916433349,-11984953.646486,19972730.02841,0.012331032656973,8.8643328607714e-05,-0.0001,0.010966405159647,0.047597840615978,-11984953.645901,19972730.02995,-11984953.647199,19972730.027401,41,2,0.094142265022001,3.9684223243545e-06
1.1129226759919,-11523945.670511,19139116.635998,0.013921366971837,8.8733105177999e-05,-0.0001,0.012331032656973,0.047686416922282,-11523945.669931,19139116.637692,-11523945.671249,19139116.634897,41,2,0.094131087930824,3.968592899838e-06
1.1268440429637,-11063467.400668,18311325.895212,0.015784533383135,8.8822828191833e-05,-0.0001,0.013921366971837,0.047774613175069,-11063467.400097,18311325.897083,-11063467.401433,18311325.894007,41,2,0.094119943383496,3.9687633735643e-06
1.1426285763469,-10603648.290413,17489606.226119,0.017979671031175,8.8912475802092e-05,-0.0001,0.015784533383135,0.047862404177199,-10603648.29006,17489606.226643,-10603648.290802,17489606.225626,42,2,0.094108835982428,3.9689337040239e-06
1.1606082473781,-10144632.547448,16674227.378776,0.020581587100156,8.9002023620301e-05,-0.0001,0.017979671031175,0.047949762216874,-10144632.547089,16674227.379416,-10144632.547815,16674227.378205,42,2,0.094097770833715,3.9691038448785e-06
1.1811898344782,-9686581.1592476,15865483.178352,0.023685715079446,8.9091444362899e-05,-0.0001,0.020581587100156,0.048036656731237,-9686581.1588795,15865483.179124,-9686581.1595979,15865483.177691,42,2,0.094086753614192,3.9692737442894e-06
1.2048755495577,-9229674.2585419,15063694.728988,0.02741491609709,8.9180707437217e-05,-0.0001,0.023685715079446,0.04812305391365,-9229674.2581593,15063694.729914,-9229674.2589087,15063694.728224,42,2,0.094075790649357,3.9694433441306e-06
1.2322904656547,-8774113.9010394,14269214.17279,0.031928918256421,8.9269778453907e-05,-0.0001,0.02741491609709,0.048208916252807,-8774113.9006382,14269214.173897,-8774113.901498,14269214.171907,42,2,0.09406488900425,3.9696125790624e-06
1.2642193839112,-8320127.3396235,13482429.118942,0.03743758263672,8.9358618650492e-05,-0.0001,0.031928918256421,0.048294201989729,-8320127.3391406,13482429.120261,-8320127.3401953,13482429.117919,42,2,0.09405405658984,3.9697813754359e-06
1.3016569665479,-7867970.9020719,12703767.888771,0.04421980117802,8.9447184206327e-05,-0.0001,0.03743758263672,0.04837886447489,-7867970.9014771,12703767.890344,-7867970.9027879,12703767.887583,42,2,0.09404330228799,3.969949649992e-06
1.3458767677259,-7417934.6033667,11933705.760293,0.052650813534187,8.9535425424849e-05,-0.0001,0.04421980117802,0.048462851403485,-7417934.6031322,11933705.760632,-7417934.6036647,11933705.759964,65,3,0.094032636098834,3.9701173083071e-06
1.3985275812601,-6970347.6724435,11172772.432896,0.063242323210177,8.9623285748694e-05,-0.0001,0.052650813534187,0.048546103900943,-6970347.6722381,11172772.433178,-6970347.6727056,11172772.432623,65,3,0.09402206931518,3.9702842429224e-06
1.4617699044703,-6525585.1770842,10421561.025041,0.07670243193899,8.9710700574823e-05,-0.0001,0.063242323210177,0.048628555423795,-6525585.1769039,10421561.025273,-6525585.1773142,10421561.024817,65,3,0.094011614729713,3.9704503310921e-06
1.5384723364093,-6084076.0509938,9680738.9466232,0.094026876994298,8.9797595809471e-05,-0.0001,0.07670243193899,0.048710130431259,-6084076.050836,9680738.9468119,-6084076.0511943,9680738.9464427,65,3,0.09400128688197,3.9706154320379e-06
1.6324992134036,-5646312.8428434,8951061.1430421,0.11664079946646,8.9883886102565e-05,-0.0001,0.094026876994298,0.048790742770518,-5646312.8427063,8951061.1431927,-5646312.8430162,8951061.1428897,65,3,0.093991102353705,3.9707793835948e-06
1.74914001287,-5212863.6375747,8233386.3137328,0.14662405108657,8.9969472672657e-05,-0.0001,0.11664079946646,0.048870293702705,-5212863.6374454,8233386.3139038,-5212863.6377075,8233386.3135182,64,3,0.093981080123097,3.970941998078e-06
1.8957640639566,-4784386.7174868,7528696.8983356,0.18707828471296,9.0054240608976e-05,-0.0001,0.14662405108657,0.048948669475335,-4784386.7173493,7528696.8984702,-4784386.7176485,7528696.8981772,66,3,0.093971241990375,3.971103057157e-06
2,-4513009.2823206,7084622.4917112,0.21998187117277,9.0107487294955e-05,-0.0001,0.10423593604342,0.048996053350837,-4513009.2819692,7084622.4926831,-4513009.2827822,7084622.4909502,42,2,0.093964818794917,3.9712042258604e-06
