time,avg_hydro,avg_vonmises,creep_timestep,disp_x,disp_y,dt,lps_eff_creep_strain,max_hydro,max_vonmises,min_hydro,min_vonmises,num_lin,num_nonlin,porosity,volume
0.01,2380343.5916446,4882368.8601894,347.41899039499,-4.2842066059518e-07,1e-06,0.01,2.8783688504105e-09,2380343.5916471,4882368.8601971,2380343.5916415,4882368.8601809,62,3,0.10000000034267,4.0011427302581e-06
0.03,7136894.2855194,14638371.620238,14.609713520487,-1.2844467450992e-06,3e-06,0.02,1.3977359250586e-07,7136894.2856042,14638371.620342,7136894.2854055,14638371.620141,59,3,0.10000001597252,4.0034272531696e-06
0.07,16621928.524159,34086698.849379,1.1530797279618,-2.9953332730299e-06,7e-06,0.04,3.6087444728287e-06,16621928.525348,34086698.8512,16621928.523024,34086698.847351,62,3,0.10000041173039,4.0079883661212e-06
0.15,35416513.469766,72571365.634944,0.19639132785142,-6.4238984063042e-06,1.5e-05,0.08,4.4343737650577e-05,35416513.957576,72571366.524569,35416512.506867,72571363.56756,62,3,0.10000434419521,4.0170558449167e-06
0.23,53754345.93327,109953864.408,0.055088988715451,-9.9021355886746e-06,2.3e-05,0.08,0.00018956332110186,53754345.937508,109953864.41377,53754345.926914,109953864.40415,83,4,0.10001829520923,4.0259679797057e-06
0.28508898871545,66028525.605415,134839678.31765,0.029823234342761,-1.2342018819207e-05,2.8508898871545e-05,0.055088988715451,0.00037428167834581,66028525.632846,134839678.40631,66028525.547755,134839678.13623,63,3,0.10003606331561,4.0319819027464e-06
0.31491222305821,72548018.048806,148009348.20464,0.022911570806282,-1.3678855684128e-05,3.1491222305821e-05,0.029823234342761,0.00050444837262385,72548018.054072,148009348.21291,72548018.042412,148009348.19956,62,3,0.10004865113143,4.03519396936e-06
0.33782379386449,77472362.166549,157922629.26405,0.01893165738592,-1.4717891477009e-05,3.3782379386449e-05,0.022911570806282,0.00062547090291347,77472362.171464,157922629.27027,77472362.16051,157922629.26001,62,3,0.10006037692712,4.037631770427e-06
0.35675545125041,81478587.6221,165961850.70747,0.016348107328458,-1.5585653287227e-05,3.5675545125041e-05,0.01893165738592,0.00074127426165225,81478587.62685,165961850.71338,81478587.61619,165961850.70369,62,3,0.10007161313295,4.0396237570002e-06
0.37310355857887,84888064.784584,172782814.37663,0.014508991432968,-1.6342478122267e-05,3.7310355857887e-05,0.016348107328458,0.00085394995931435,84888064.789217,172782814.38237,84888064.778737,172782814.373,63,3,0.10008255878863,4.0413260117986e-06
0.38761255001184,87872390.205247,178735818.23007,0.013121346937258,-1.7020460580307e-05,3.8761255001184e-05,0.014508991432968,0.0009645254322127,87872390.209842,178735818.23572,87872390.199455,178735818.2265,63,3,0.10009331156856,4.0428218544306e-06
0.4007338969491,90535720.204865,184033533.74845,0.012030706793427,-1.7639034740923e-05,4.007338969491e-05,0.013121346937258,0.0010735909024045,90535720.209432,184033533.75404,90535720.199123,184033533.74493,63,3,0.10010392751297,4.0441618539966e-06
0.41276460374252,92946621.249914,188815986.71947,0.011147160438163,-1.8210968974534e-05,4.1276460374252e-05,0.012030706793427,0.0011815171034778,92946621.254454,188815986.72501,92946621.24422,188815986.716,63,3,0.10011444176685,4.0453792984618e-06
0.42391176418069,95152928.53451,193180878.23144,0.010414461500737,-1.8745156586839e-05,4.2391176418069e-05,0.011147160438163,0.0012885525025998,95152928.539018,193180878.23692,95152928.528863,193180878.22801,63,3,0.10012487784184,4.0464974104242e-06
0.43432622568142,97189500.352357,197199411.73613,0.0097954452065778,-1.9248069299532e-05,4.3432622568142e-05,0.010414461500737,0.0013948719324682,97189500.356831,197199411.74157,97189500.34676,197199411.73274,64,3,0.1001352522484,4.0475331124098e-06
0.444121670888,99082616.269404,200925271.43939,0.0092644757965167,-1.9724580261524e-05,4.44121670888e-05,0.0097954452065778,0.0015006031731562,99082616.273852,200925271.44478,99082616.263851,200925271.43604,64,3,0.1001455770269,4.0484991623018e-06
0.45338614668452,100852635.9099,204400050.689,0.0088032447995626,-2.0178460856753e-05,4.5338614668452e-05,0.0092644757965167,0.0016058425025633,100852635.91433,204400050.69433,100852635.90439,204400050.68569,63,3,0.10015586122775,4.0494054441636e-06
0.46218939148408,102515689.52366,207656703.98651,0.0083982961804814,-2.0612696196085e-05,4.6218939148408e-05,0.0088032447995626,0.0017106642974516,102515689.52806,207656703.99179,102515689.51819,207656703.98324,63,3,0.10016611182475,4.050259788955e-06
0.47058768766456,104084797.98814,210721834.18621,0.0080394989917689,-2.1029693897238e-05,4.7058768766456e-05,0.0083982961804814,0.0018151272271211,104084797.99252,210721834.19144,104084797.98271,210721834.18297,63,3,0.10017633430401,4.0510685182377e-06
0.47862718665633,105570640.54033,213617260.45207,0.007719067373453,-2.1431427054754e-05,4.7862718665633e-05,0.0080394989917689,0.0019192783972052,105570640.54468,213617260.45726,105570640.53494,213617260.44888,64,3,0.10018653305769,4.0518368168596e-06
0.48634625402978,106982096.39663,216361124.50929,0.0074309106720521,-2.1819535011502e-05,4.8634625402978e-05,0.007719067373453,0.0020231562085737,106982096.40096,216361124.51443,106982096.39127,216361124.50614,63,3,0.10019671165545,4.0525689958727e-06
0.49377716470184,108326636.37953,218968690.59308,0.0071701900989409,-2.2195396163217e-05,4.9377716470184e-05,0.0074309106720521,0.0021267923823304,108326636.38384,218968690.59818,108326636.37422,218968690.58996,64,3,0.10020687303665,4.0532686826368e-06
0.50094735480078,109610612.19118,221452936.36495,0.0069330087576063,-2.2560181694842e-05,5.0094735480078e-05,0.0071701900989409,0.0022302134271801,109610612.19547,221452936.37,109610612.1859,221452936.36186,64,3,0.10021701964945,4.0539389612376e-06
0.50788036355838,110839474.10587,223824997.631,0.0067161901938317,-2.2914895991695e-05,5.0788036355838e-05,0.0069330087576063,0.0023334417241065,110839474.11014,223824997.63601,110839474.10063,223824997.62794,64,3,0.10022715355357,4.0545824781591e-06
0.51459655375221,112017937.51205,226094508.58329,0.006517117141317,-2.3260407535491e-05,5.1459655375221e-05,0.0067161901938317,0.0024364963423698,112017937.5163,226094508.58826,112017937.50684,226094508.58025,64,3,0.10023727649757,4.0552015231253e-06
0.52111367089353,113150112.19988,228269865.94317,0.0063336120873624,-2.3597472874748e-05,5.2111367089353e-05,0.006517117141317,0.0025393936630369,113150112.2041,228269865.9481,113150112.1947,228269865.94015,62,3,0.10024738997779,4.0557980918593e-06
0.52744728298089,114239604.05081,230358436.72837,0.0061638474542046,-2.3926755467879e-05,5.2744728298089e-05,0.0063336120873624,0.0026421478621395,114239604.05502,230358436.73324,114239604.04567,230358436.72537,62,3,0.10025749528401,4.0563739354457e-06
0.5336111304351,115289595.9689,232366723.61393,0.0060062771171303,-2.4248840671881e-05,5.336111304351e-05,0.0061638474542046,0.0027447712898002,115289595.97308,232366723.61877,115289595.96379,232366723.61095,64,3,0.10026759353528,4.0569305996165e-06
0.53961740755223,116302912.98248,234300497.95401,0.005859583535651,-2.4564247793385e-05,5.3961740755223e-05,0.0060062771171303,0.0028472747711287,116302912.98664,234300497.95881,116302912.9774,234300497.95105,64,3,0.10027768570824,4.0574694563539e-06
0.54547699108788,117282075.12895,236164907.82915,0.0057226364538786,-2.4873439871318e-05,5.4547699108788e-05,0.005859583535651,0.002949667847511,117282075.20992,236164907.97988,117282075.03076,236164907.69664,42,2,0.1002877726599,4.0579917295765e-06
0.55119962754176,118229340.76415,237964566.60537,0.005594460403831,-2.5176831695515e-05,5.5119962754176e-05,0.0057226364538786,0.0030519589716252,118229340.84213,237964566.74769,118229340.67146,237964566.48223,42,2,0.10029785514601,4.0584985161066e-06
0.55679408794559,119146742.40717,239703626.08977,0.0054742086460206,-2.5474796420473e-05,5.5679408794559e-05,0.005594460403831,0.0031541556679587,119146742.48247,239703626.22445,119146742.31937,239703625.97497,42,2,0.10030793383608,4.0589908031582e-06
0.56226829659161,120036116.51076,241385837.42824,0.0053611424003911,-2.5767671074659e-05,5.6226829659161e-05,0.0054742086460206,0.003256264663044,120036116.58364,241385837.55594,120036116.42734,241385837.32089,42,2,0.10031800932569,4.0594694827301e-06
0.567629438992,120899128.45022,243014602.1558,0.0052546139341288,-2.6055761174619e-05,5.67629438992e-05,0.0053611424003911,0.0033582919947009,120899128.52028,243014602.27664,120899128.37066,243014602.05588,42,2,0.10032808214671,4.0599353637518e-06
0.57288405292613,121737293.59654,244593015.25998,0.0051540527730293,-2.6339344616002e-05,5.7288405292613e-05,0.0052546139341288,0.0034602431029265,121737293.66459,244593015.37499,121737293.52053,244593015.16603,42,2,0.1003381527758,4.0603891823157e-06
0.57803810569916,122551995.19856,246123901.72657,0.0050589543680293,-2.6618674974633e-05,5.7803810569916e-05,0.0051540527730293,0.0035621229062518,122551995.26477,246123901.83622,122551995.12578,246123901.63805,42,2,0.10034822164159,4.0608316103563e-06
0.58309706006719,123344499.64399,247609847.7264,0.0049688707155189,-2.6893984322398e-05,5.8309706006719e-05,0.0050589543680293,0.0036639358662973,123344499.70852,247609847.83108,123344499.57416,247609847.6428,42,2,0.10035828913069,4.0612632630606e-06
0.58806593078271,124115969.54963,249053227.36741,0.0048834025493168,-2.716548564197e-05,5.8806593078271e-05,0.0049688707155189,0.0037656860426215,124115969.61261,249053227.46749,124115969.4825,249053227.28832,42,2,0.10036835559282,4.0616847052235e-06
0.59294933333202,124867475.04486,250456225.75457,0.0048021928026557,-2.7433374907588e-05,5.9294933333202e-05,0.0048834025493168,0.0038673771395792,124867475.1064,250456225.85037,124867474.9802,250456225.67961,42,2,0.10037842134519,4.0620964567255e-06
0.59775152613468,125600003.54216,251820858.95772,0.0047249211042047,-2.7697832886269e-05,5.9775152613468e-05,0.0048021928026557,0.0039690125465436,125600003.60237,251820859.04953,125600003.47978,251820858.88656,42,2,0.10038848667625,4.0624989972767e-06
0.60247644723888,126314468.23374,253148991.37625,0.0046512991210633,-2.7959026703737e-05,6.0247644723888e-05,0.0047249211042047,0.0040705953725919,126314468.29273,253148991.46432,126314468.17348,253148991.30858,42,2,0.10039855184887,4.0628927705425e-06
0.60712774635995,127011715.51039,254442350.901,0.0045810665995328,-2.8217111211317e-05,6.0712774635995e-05,0.0046512991210633,0.0041721284765417,127011715.56823,254442350.98558,127011715.45208,254442350.83658,42,2,0.1004086171032,4.0632781877452e-06
0.61170881295948,127692531.46376,255702542.20338,0.0045139879839155,-2.8472230183651e-05,6.1170881295948e-05,0.0045810665995328,0.0042736144930706,127692531.52053,255702542.28469,127692531.40727,255702542.14196,42,2,0.10041868265904,4.0636556308212e-06
0.6162228009434,128357647.6061,256931058.42478,0.0044498495166198,-2.8724517371973e-05,6.162228009434e-05,0.0045139879839155,0.0043750558555131,128357647.66186,256931058.50301,128357647.55129,256931058.36615,42,2,0.10042874871798,4.0640254551989e-06
0.62067265046002,129007745.91856,258129291.49414,0.0043884567410013,-2.8974097433516e-05,6.2067265046002e-05,0.0044498495166198,0.0044764548158317,129007745.97339,258129291.56947,129007745.86534,258129291.43811,42,2,0.10043881546523,4.0643879922491e-06
0.62506110720102,129643463.32151,259298541.26396,0.0043296323427604,-2.9221086754292e-05,6.2506110720102e-05,0.0043884567410013,0.0045778134621729,129643463.37546,259298541.33655,129643463.26977,259298541.21036,42,2,0.10044888307127,4.0647435514565e-06
0.62939073954378,130265395.64495,260440023.62496,0.0042732142772008,-2.9465594179709e-05,6.2939073954378e-05,0.0043296323427604,0.0046791337343479,130265395.69808,260440023.69498,130265395.5946,260440023.57364,42,2,0.10045895169324,4.0650924223468e-06
0.63366395382098,130874101.16546,261554877.73455,0.0042190541388645,-2.9707721665246e-05,6.3366395382098e-05,0.0042732142772008,0.0047804174375288,130874101.2178,261554877.80212,130874101.1164,261554877.68535,42,2,0.10046902147622,4.0654348762053e-06
0.63788300795984,131470103.7613,262644172.47662,0.0041670157410607,-2.9947564858539e-05,6.3788300795984e-05,0.0042190541388645,0.0048816662544026,131470103.79017,262644172.4939,131470103.74062,262644172.46747,43,2,0.10047909255436,4.065771167604e-06
0.6420500237009,132053895.75946,263708912.23393,0.0041169738536255,-3.0185213615939e-05,6.420500237009e-05,0.0041670157410607,0.0049828817560607,132053895.78789,263708912.25043,132053895.73931,263708912.22509,43,2,0.10048916505187,4.0661015358009e-06
0.64616699755453,132625940.44954,264750042.09525,0.0040688131285755,-3.042075247496e-05,6.4616699755453e-05,0.0041169738536255,0.0050840654113837,132625940.47754,264750042.11103,132625940.42987,264750042.08672,43,2,0.10049923908386,4.0664262059362e-06
0.6502358106831,133186674.38892,265768452.52009,0.0040224271185203,-3.0654261071256e-05,6.502358106831e-05,0.0040688131285755,0.0051852185959393,133186674.41653,265768452.53518,133186674.36972,265768452.51185,43,2,0.1005093147572,4.0667453901684e-06
0.65425823780162,133736509.46118,266764983.55661,0.0039777174265524,-3.0885814518474e-05,6.5425823780162e-05,0.0040224271185203,0.0052863425996202,133736509.48822,266764983.57138,133736509.44214,266764983.54884,43,2,0.10051939217116,4.0670592886693e-06
0.65823595522818,134275834.74063,267740428.65382,0.0039345929493632,-3.1115483751076e-05,6.5823595522818e-05,0.0039777174265524,0.0053874386335963,134275834.7673,267740428.66796,134275834.72201,267740428.64632,43,2,0.10052947141811,4.0673680905305e-06
0.66217054817754,134805018.1831,268695538.11464,0.0038929692051708,-3.1343335834565e-05,6.6217054817754e-05,0.0039345929493632,0.0054885078365717,134805018.20941,268695538.12818,134805018.16488,268695538.1074,43,2,0.10053955258404,4.0676719745831e-06
0.66606351738271,135324408.15954,269631022.23163,0.0038527677349301,-3.1569434247391e-05,6.6606351738271e-05,0.0038929692051708,0.0055895512804391,135324408.18552,269631022.24461,135324408.14171,269631022.22465,43,2,0.10054963574909,4.0679711101439e-06
0.66991628511764,135834334.85174,270547554.13894,0.0038139155681431,-3.1793839137174e-05,6.6991628511764e-05,0.0038527677349301,0.0056905699753875,135834334.87739,270547554.15138,135834334.83427,270547554.13219,43,2,0.10055972098801,4.0682656576925e-06
0.67373020068578,136335111.52407,271445772.4113,0.0037763447449697,-3.2016607554189e-05,6.7373020068578e-05,0.0038139155681431,0.0057915648745342,136335111.54941,271445772.42323,136335111.50693,271445772.40478,43,2,0.1005698083706,4.0685557694892e-06
0.67750654543075,136827035.68461,272326283.4369,0.0037399918878475,-3.2237793664495e-05,6.7750654543075e-05,0.0037763447449697,0.0058925368781297,136827035.70965,272326283.44834,136827035.66781,272326283.43041,43,2,0.10057989796206,4.068841590139e-06
0.6812465373186,137310390.14702,273189663.58742,0.0037047978166981,-3.2457448944815e-05,6.812465373186e-05,0.0037399918878475,0.005993486837383,137310390.17176,273189663.5984,137310390.13052,273189663.58089,43,2,0.10058998982335,4.0691232571073e-06
0.6849513351353,137785444.00321,274036461.20579,0.0036707072026038,-3.2675622361017e-05,6.849513351353e-05,0.0037047978166981,0.0060944155579473,137785444.02768,274036461.21632,137785443.98701,274036461.19923,43,2,0.10060008401152,4.0694009011923e-06
0.6886220423379,138252453.51591,274867198.4301,0.0036376682555101,-3.289236053186e-05,6.886220423379e-05,0.0036707072026038,0.006195323803102,138252453.5401,274867198.44021,138252453.5,274867198.42352,43,2,0.10061018057996,4.0696746469587e-06
0.69225971059341,138711662.93876,275682372.86956,0.0036056324420954,-3.3107707879423e-05,6.9225971059341e-05,0.0036376682555101,0.0062962122966614,138711662.96269,275682372.87926,138711662.92312,275682372.86296,43,2,0.1006202795787,4.0699446131358e-06
0.69586534303551,139163305.2711,276482459.14692,0.0035745542304399,-3.332170676754e-05,6.9586534303551e-05,0.0036056324420954,0.0063970817256387,139163305.29477,276482459.15623,139163305.25572,276482459.1403,43,2,0.10063038105462,4.0702109129844e-06
0.69943989726595,139607602.95362,277267910.31993,0.0035443908585518,-3.3534397629351e-05,6.9943989726595e-05,0.0035745542304399,0.0064979327426893,139607602.97704,277267910.32886,139607602.93849,277267910.31328,43,2,0.10064048505168,4.0704736546346e-06
0.7029842881245,140044768.51034,278039159.19323,0.0035151021241745,-3.3745819085007e-05,7.029842881245e-05,0.0035443908585518,0.0065987659683546,140044768.53351,278039159.20181,140044768.49545,278039159.18657,43,2,0.10065059161113,4.0707329413976e-06
0.70649939024868,140475005.14189,278796619.53075,0.0034866501936119,-3.3956008050429e-05,7.0649939024868e-05,0.0035151021241745,0.006699581993126,140475005.16483,278796619.53898,140475005.12723,278796619.52408,43,2,0.10066070077166,4.0709888720539e-06
0.70998604044229,140898507.27456,279540687.17747,0.0034589994275826,-3.4164999837927e-05,7.0998604044229e-05,0.0034866501936119,0.0068003813793456,140898507.29727,279540687.18537,140898507.26013,279540687.17079,43,2,0.10067081256963,4.0712415411203e-06
0.71344503986987,141315461.06889,280271741.09881,0.0034321162223485,-3.4372828249413e-05,7.1344503986987e-05,0.0034589994275826,0.0069011646629598,141315461.09138,280271741.10638,141315461.05468,280271741.09212,43,2,0.10068092703915,4.0714910390964e-06
0.71687715609222,141726044.89157,280990144.34473,0.003405968864566,-3.4579525662856e-05,7.1687715609222e-05,0.0034321162223485,0.0070019323551379,141726044.91383,280990144.35199,141726044.87756,280990144.33803,43,2,0.10069104421229,4.0717374526944e-06
0.72028312495678,142130429.75357,281696244.94513,0.0033805273984903,-3.4785123112558e-05,7.2028312495678e-05,0.003405968864566,0.0071026849437692,142130429.77562,281696244.95209,142130429.73977,281696244.93842,43,2,0.10070116411918,4.0719808650517e-06
0.72366365235527,142528779.71765,282390376.74231,0.0033557635043142,-3.4989650363784e-05,7.2366365235527e-05,0.0033805273984903,0.0072034228948485,142528779.73948,282390376.74899,142528779.70404,282390376.7356,43,2,0.10071128678811,4.072221355929e-06
0.72701941585959,142921252.27753,283072860.16589,0.0033316503865624,-3.5193135982219e-05,7.2701941585959e-05,0.0033557635043142,0.0073041466537608,142921252.29916,283072860.17228,142921252.26412,283072860.15918,43,2,0.10072141224571,4.0724590018942e-06
0.73035106624615,143307998.71132,283744002.95476,0.0033081626715761,-3.5395607398677e-05,7.3035106624615e-05,0.0033316503865624,0.0074048566464724,143307998.73274,283744002.96088,143307998.69809,283744002.94804,43,2,0.10073154051699,4.0726938764946e-06
0.73365922891773,143689164.41109,284404100.83059,0.0032852763132334,-3.5597090969453e-05,7.3365922891773e-05,0.0033081626715761,0.007505553280638,143689164.4323,284404100.83644,143689164.39804,284404100.82387,43,2,0.10074167162546,4.0729260504165e-06
0.73694450523096,144064889.19069,285053438.12664,0.0032629685061371,-3.5797612032662e-05,7.3694450523096e-05,0.0032852763132334,0.0076062369466301,144064889.2117,285053438.13223,144064889.17781,285053438.11991,43,2,0.10075180559323,4.0731555916352e-06
0.7402074737371,144435307.57335,285692288.37542,0.0032412176055795,-3.5997194960897e-05,7.402074737371e-05,0.0032629685061371,0.0077069080184966,144435307.59417,285692288.38076,144435307.56065,285692288.3687,43,2,0.10076194244109,4.0733825655543e-06
0.74344869134268,144800549.06082,286320914.85852,0.0032200030536975,-3.6195863210476e-05,7.4344869134268e-05,0.0032412176055795,0.0078075668548539,144800549.08144,286320914.86361,144800549.04829,286320914.8518,43,2,0.10077208218857,4.073607035137e-06
0.74666869439637,145160738.38535,286939571.1214,0.0031993053112153,-3.6393639367551e-05,7.4666869439637e-05,0.0032200030536975,0.0079082137997193,145160738.40577,286939571.12624,145160738.37298,286939571.11467,43,2,0.10078222485403,4.0738290610281e-06
0.74986799970759,145515995.74582,287548501.45585,0.0031791057943257,-3.6590545191326e-05,7.4986799970759e-05,0.0031993053112153,0.0080088491832884,145515995.76605,287548501.46046,145515995.73361,287548501.44912,43,2,0.10079237045473,4.0740487016688e-06
0.75304710550192,145866437.02934,288147941.35264,0.0031593868162478,-3.6786601654581e-05,7.5304710550192e-05,0.0031791057943257,0.0081094733226613,145866437.04937,288147941.35712,145866437.01728,288147941.34591,43,2,0.10080251900687,4.0742660134045e-06
0.75620649231816,146212174.01918,288738117.92635,0.0031401315330558,-3.6981828981721e-05,7.5620649231816e-05,0.0031593868162478,0.0082100865225221,146212174.03902,288738117.93075,146212174.00728,288738117.91961,43,2,0.10081267052568,4.0744810505858e-06
0.75934662385122,146553314.59026,289319250.31466,0.0031213238934224,-3.7176246684517e-05,7.5934662385122e-05,0.0031401315330558,0.0083106890757748,146553314.6099,289319250.31899,146553314.57851,289319250.30793,43,2,0.10082282502545,4.0746938656634e-06
0.76246794774464,146889962.89289,289891550.05381,0.0031029485919447,-3.7369873595721e-05,7.6246794774464e-05,0.0031213238934224,0.0084112812641389,146889962.91235,289891550.05806,146889962.88129,289891550.04707,43,2,0.10083298251958,4.0749045092776e-06
0.76557089633659,147222219.52579,290455221.43187,0.0030849910257597,-3.756272790069e-05,7.6557089633659e-05,0.0031029485919447,0.0085118633587082,147222219.54505,290455221.43609,147222219.51434,290455221.42513,43,2,0.10084314302067,4.075113030342e-06
0.76865588736235,147550181.69894,291010461.82159,0.0030674372541776,-3.7754827167173e-05,7.6865588736235e-05,0.0030849910257597,0.0086124356204754,147550181.71801,291010461.82593,147550181.68763,291010461.81485,43,2,0.1008533065405,4.0753194761231e-06
0.77172332461652,147873943.38719,291557461.99403,0.0030502739610909,-3.7946188373378e-05,7.7172332461652e-05,0.0030674372541776,0.0087129983008239,147873943.40606,291557461.99848,147873943.37602,291557461.98728,43,2,0.10086347309012,4.0755238923146e-06
0.77477359857761,148193595.47506,292096406.4144,0.003033488419938,-3.8136827934454e-05,7.7477359857761e-05,0.0030502739610909,0.0088135516419913,148193595.49374,292096406.41897,148193595.46403,292096406.40765,43,2,0.10087364267987,4.0757263231077e-06
0.77780708699755,148509225.8935,292627473.52137,0.0030170684610175,-3.8326761727469e-05,7.7780708699755e-05,0.003033488419938,0.0089140958775044,148509225.91198,292627473.52605,148509225.88261,292627473.51462,43,2,0.10088381531943,4.075926811258e-06
0.78082415545857,148820919.749,293150835.99081,0.003001002440974,-3.8516005115018e-05,7.8082415545857e-05,0.0030170684610175,0.0090146312325889,148820919.76729,293150835.99559,148820919.73825,293150835.98406,43,2,0.10089399101781,4.0761253981479e-06
0.78382515789954,149128759.44566,293666660.98512,0.0029852792142841,-3.870457296752e-05,7.8382515789954e-05,0.003001002440974,0.009115157924556,149128759.46376,293666660.99001,149128759.43504,293666660.97837,43,2,0.10090416978348,4.0763221238458e-06
0.78681043711383,149432824.80068,294175110.38907,0.0029698881065924,-3.8892479684317e-05,7.8681043711383e-05,0.0029852792142841,0.0092156761631656,149432824.81857,294175110.39405,149432824.79019,294175110.38232,43,2,0.10091435162428,4.0765170271627e-06
0.78978032522042,149733193.15357,294676341.03294,0.0029548188897582,-3.9079739213634e-05,7.8978032522042e-05,0.0029698881065924,0.0093161861509704,149733193.17127,294676341.03801,149733193.14321,294676341.02619,43,2,0.10092453654753,4.0767101457049e-06
0.79273514411018,150029939.46973,295170504.90393,0.002940061758484,-3.9266365071481e-05,7.9273514411018e-05,0.0029548188897582,0.009416688083639,150029939.48724,295170504.90909,150029939.4595,295170504.89718,43,2,0.10093472456006,4.0769015159244e-06
0.79567520586866,150323136.43846,295657749.34645,0.0029256073084111,-3.9452370359568e-05,7.9567520586866e-05,0.002940061758484,0.0095171821502629,150323136.45577,295657749.35169,150323136.42835,295657749.33971,43,2,0.10094491566816,4.0770911731664e-06
0.79860081317707,150612854.56596,296138217.25201,0.0029114465155739,-3.9637767782283e-05,7.9860081317707e-05,0.0029256073084111,0.0096176685336453,150612854.58308,296138217.25733,150612854.55597,296138217.24527,43,2,0.1009551098777,4.0772791517151e-06
0.80151225969265,150899162.26359,296612047.23943,0.0028975707171158,-3.9822569662806e-05,8.0151225969265e-05,0.0029114465155739,0.0097181474105746,150899162.28052,296612047.24482,150899162.25372,296612047.23269,43,2,0.10096530719407,4.0774654848358e-06
0.80440983040976,151182125.93161,297079373.82589,0.0028839715931761,-4.0006787958398e-05,8.0440983040976e-05,0.0028975707171158,0.0098186189520836,151182125.94835,297079373.83134,151182125.92185,297079373.81916,43,2,0.10097550762227,4.077650204816e-06
0.80729380200294,151461810.03873,297540327.58938,0.0028706411498661,-4.0190434274927e-05,8.0729380200294e-05,0.0028839715931761,0.0099190833236947,151461810.0553,297540327.59489,151461810.02908,297540327.58266,43,2,0.10098571116688,4.0778333430043e-06
0.81016444315281,151738277.19775,297995035.32313,0.0028575717032577,-4.0373519880671e-05,8.1016444315281e-05,0.0028706411498661,0.010019540685652,151738277.21415,297995035.3287,151738277.18821,297995035.31643,43,2,0.10099591783211,4.0780149298465e-06
0.81302201485606,152011588.23746,298443620.18245,0.0028447558643139,-4.0556055719437e-05,8.1302201485606e-05,0.0028575717032577,0.010119991193141,152011588.2537,298443620.18806,152011588.22801,298443620.17576,43,2,0.10100612762179,4.0781949949213e-06
0.81586677072038,152281802.27102,298886201.82435,0.0028321865246982,-4.0738052423049e-05,8.1586677072038e-05,0.0028447558643139,0.010220434996499,152281802.2871,298886201.83,152281802.26166,298886201.81768,43,2,0.10101634053942,4.0783735669729e-06
0.81869895724508,152548976.76108,299322896.54055,0.0028198568434027,-4.0919520323226e-05,8.1869895724508e-05,0.0028321865246982,0.010320872241413,152548976.77701,299322896.54623,152548976.75181,299322896.53391,43,2,0.10102655658815,4.0785506739431e-06
0.82151881408848,152813167.58183,299753817.38409,0.0028077602341388,-4.11004694629e-05,8.2151881408848e-05,0.0028198568434027,0.010421303069104,152813167.59763,299753817.3898,152813167.57264,299753817.37749,43,2,0.10103677577083,4.0787263430012e-06
0.82432657432262,153074429.07806,300179074.29002,0.0027958903534427,-4.1280909606995e-05,8.2432657432262e-05,0.0028077602341388,0.010521727616512,153074429.09374,300179074.29574,153074429.06895,300179074.28345,43,2,0.10104699809002,4.0789006005729e-06
0.82712246467606,153332814.12151,300598774.19033,0.002784241089445,-4.1460850252704e-05,8.2712246467606e-05,0.0027958903534427,0.010622146016463,153332814.13708,300598774.19607,153332814.11246,300598774.1838,43,2,0.10105722354795,4.0790734723674e-06
0.8299067057655,153588374.16457,301013021.12375,0.0027728065512647,-4.1640300639289e-05,8.299067057655e-05,0.002784241089445,0.010722558397829,153588374.18004,301013021.12949,153588374.15558,301013021.11727,43,2,0.10106745214663,4.0792449834039e-06
0.83267951231677,153841159.2916,301421916.34035,0.0027615810589849,-4.1819269757428e-05,8.3267951231677e-05,0.0027728065512647,0.010822964885686,153841159.30699,301421916.34609,153841159.28266,301421916.33392,43,2,0.10107768388777,4.0794151580362e-06
0.83544109337575,154091218.26783,301825558.40151,0.0027505591341742,-4.1997766358148e-05,8.3544109337575e-05,0.0027615810589849,0.010923365601456,154091218.28315,301825558.40724,154091218.25894,301825558.39513,43,2,0.10108791877284,4.0795840199767e-06
0.83819165250993,154338598.58614,302224043.27533,0.0027397354909183,-4.2175798961341e-05,8.3819165250993e-05,0.0027505591341742,0.011023760663048,154338598.6014,302224043.28105,154338598.57729,302224043.26901,43,2,0.10109815680308,4.079751592319e-06
0.84093138800085,154583346.51169,302617464.42783,0.0027291050273318,-4.2353375863912e-05,8.4093138800085e-05,0.0027397354909183,0.011124150184994,154583346.52691,302617464.43353,154583346.50288,302617464.42157,43,2,0.10110839797949,4.0799178975596e-06
0.84366049302818,154825507.12468,303005912.9101,0.0027186628175175,-4.2530505147564e-05,8.4366049302818e-05,0.0027291050273318,0.01122453427857,154825507.13986,303005912.91578,154825507.1159,303005912.90391,43,2,0.10111864230286,4.0800829576188e-06
0.8463791558457,155065124.3611,303389477.44169,0.0027084041039478,-4.2707194686238e-05,8.463791558457e-05,0.0027186628175175,0.011324913051921,155065124.37626,303389477.44735,155065124.35235,303389477.43557,43,2,0.10112888977376,4.0802467938604e-06
0.84908755994964,155302241.05188,303768244.49033,0.0026983242902424,-4.2883452153238e-05,8.4908755994964e-05,0.0027084041039478,0.011425286610177,155302241.06702,303768244.49596,155302241.04315,303768244.48426,43,2,0.10113914039258,4.0804094271108e-06
0.85178588423989,155536898.96024,304142298.34823,0.0026884189343168,-4.3059285028041e-05,8.5178588423989e-05,0.0026983242902424,0.011525655055557,155536898.97537,304142298.35383,155536898.95153,304142298.34223,43,2,0.10114939415951,4.0805708776771e-06
0.8544743031742,155769138.81748,304511721.20523,0.0026786837418809,-4.3234700602825e-05,8.544743031742e-05,0.0026884189343168,0.011626018487483,155769138.8326,304511721.2108,155769138.80879,304511721.1993,43,2,0.10115965107454,4.0807311653645e-06
0.85715298691608,155999000.35732,304876593.21875,0.0026691145602663,-4.3409705988716e-05,8.5715298691608e-05,0.0026786837418809,0.01172637700267,155999000.37244,304876593.2243,155999000.34865,304876593.2129,43,2,0.10116991113751,4.0808903094933e-06
0.85982210147635,156226522.34872,305236992.58089,0.0026597073725631,-4.3584308121777e-05,8.5982210147635e-05,0.0026691145602663,0.011826730695233,156226522.36384,305236992.5864,156226522.34007,305236992.5751,43,2,0.10118017434808,4.0810483289141e-06
0.86248180884891,156451742.62743,305592995.58269,0.0026504582920477,-4.3758513768746e-05,8.6248180884891e-05,0.0026597073725631,0.01192707965677,156451742.64255,305592995.58818,156451742.61879,305592995.57697,43,2,0.10119044070576,4.0812052420239e-06
0.86513226714096,156674698.12614,305944676.67586,0.0026413635568857,-4.3932329532542e-05,8.6513226714096e-05,0.0026504582920477,0.012027423976454,156674698.14127,305944676.68132,156674698.11751,305944676.6702,43,2,0.10120071020989,4.0813610667806e-06
0.86777363069785,156895424.90352,306292108.53186,0.002632419525093,-4.4105761857541e-05,8.6777363069785e-05,0.0026413635568857,0.012127763741115,156895424.91866,306292108.53729,156895424.89491,306292108.52627,43,2,0.10121098285968,4.0815158207167e-06
0.87040605022294,157113958.17202,306635362.0987,0.002623622669741,-4.4278817034641e-05,8.7040605022294e-05,0.002632419525093,0.012228099035323,157113958.18716,306635362.1041,157113958.16343,306635362.09317,43,2,0.10122125865419,4.0816695209533e-06
0.87302967289268,157330332.32454,306974506.65543,0.0026149695743933,-4.4451501206129e-05,8.7302967289268e-05,0.002623622669741,0.012328429941461,157330332.33969,306974506.66081,157330332.31596,306974506.64996,43,2,0.10123153759234,4.0818221842129e-06
0.87564464246707,157544580.96011,307309609.86447,0.0026064569287574,-4.4623820370346e-05,8.7564464246707e-05,0.0026149695743933,0.012428756539804,157544580.97527,307309609.86982,157544580.95156,307309609.85905,43,2,0.10124181967294,4.0819738268318e-06
0.87825109939583,157756736.90853,307640737.82184,0.0025980815245447,-4.4795780386174e-05,8.7825109939583e-05,0.0026064569287574,0.012529078908584,157756736.92369,307640737.82717,157756736.89999,307640737.81649,43,2,0.10125210489466,4.082124464772e-06
0.88084918092038,157966832.25401,307967955.10557,0.0025898402515212,-4.4967386977347e-05,8.8084918092038e-05,0.0025980815245447,0.012629397124061,157966832.26917,307967955.11087,157966832.24548,307967955.10027,43,2,0.10126239325605,4.0822741136331e-06
0.8834390211719,158174898.35793,308291324.822,0.0025817300937453,-4.5138645736593e-05,8.834390211719e-05,0.0025898402515212,0.012729711260589,158174898.37309,308291324.82729,158174898.34942,308291324.81676,43,2,0.10127268475555,4.0824227886629e-06
0.88602075126564,158380965.88077,308610908.65058,0.0025737481259761,-4.5309562129617e-05,8.8602075126564e-05,0.0025817300937453,0.012830021390676,158380965.89593,308610908.65584,158380965.87228,308610908.64539,43,2,0.10128297939151,4.0825705047685e-06
0.88859449939162,158585064.80313,308926766.88669,0.0025658915102476,-4.5480141498934e-05,8.8859449939162e-05,0.0025737481259761,0.012930327585041,158585064.81829,308926766.89193,158585064.79466,308926766.88155,43,2,0.10129327716213,4.0827172765261e-06
0.89116039090187,158787224.44598,309238958.48309,0.002558157492598,-4.5650389067555e-05,8.9116039090187e-05,0.0025658915102476,0.013030629912681,158787224.46114,309238958.48832,158787224.43754,309238958.478,43,2,0.10130357806556,4.082863118191e-06
0.89371854839446,158987473.49018,309547541.08962,0.0025505433999455,-4.5820309942536e-05,8.9371854839446e-05,0.002558157492598,0.013130928440915,158987473.50534,309547541.09483,158987473.48176,309547541.08458,43,2,0.10131388209983,4.0830080437073e-06
0.89626909179441,159185839.99525,309852571.09154,0.0025430466371051,-4.5989909118391e-05,8.9626909179441e-05,0.0025505433999455,0.013231223235444,159185840.01039,309852571.09673,159185839.98685,309852571.08655,43,2,0.10132418926286,4.0831520667168e-06
0.89881213843151,159382351.41743,310154103.64642,0.0025356646839365,-4.6159191480388e-05,8.9881213843151e-05,0.0025430466371051,0.0133315143604,159382351.43257,310154103.6516,159382351.40906,310154103.64147,43,2,0.10133449955252,4.0832952005677e-06
0.90134780311545,159577034.62715,310452192.71967,0.0025283950926175,-4.632816180771e-05,9.0134780311545e-05,0.0025356646839365,0.013431801878394,159577034.64227,310452192.72483,159577034.6188,310452192.71476,43,2,0.10134481296657,4.0834374583233e-06
0.90387619820807,159769915.92575,310746891.11877,0.0025212354850371,-4.6496824776518e-05,9.0387619820807e-05,0.0025283950926175,0.013532085850563,159769915.94086,310746891.12391,159769915.91742,310746891.1139,43,2,0.10135512950269,4.0835788527702e-06
0.90639743369311,159961021.06172,311038250.52632,0.0025141835503008,-4.6665184962885e-05,9.0639743369311e-05,0.0025212354850371,0.013632366336619,159961021.07682,311038250.53145,159961021.05342,311038250.5215,43,2,0.10136544915849,4.0837193964259e-06
0.90891161724341,160150375.2463,311326321.53186,0.0025072370423438,-4.6833246845642e-05,9.0891161724341e-05,0.0025141835503008,0.013732643394886,160150375.26139,311326321.53697,160150375.23803,311326321.52707,43,2,0.1013757719315,4.0838591015467e-06
0.91141885428575,160338003.16848,311611153.66253,0.0025003937776453,-4.7001014809112e-05,9.1141885428575e-05,0.0025072370423438,0.013832917082346,160338003.18355,311611153.66764,160338003.16024,311611153.65779,43,2,0.10138609781917,4.0839979801346e-06
0.9139192480634,160523929.00958,311892795.41276,0.0024936516330406,-4.7168493145749e-05,9.139192480634e-05,0.0025003937776453,0.013933187454681,160523929.02464,311892795.41785,160523929.00136,311892795.40805,43,2,0.1013964268189,4.0841360439448e-06
0.91641289969644,160708176.45724,312171294.27278,0.0024870085436244,-4.7335686058686e-05,9.1641289969644e-05,0.0024936516330406,0.014033454566307,160708176.47227,312171294.27786,160708176.44905,312171294.2681,43,2,0.10140675892801,4.0842733044923e-06
0.91889990824006,160890768.71892,312446696.75624,0.0024804625007419,-4.7502597664197e-05,9.1889990824006e-05,0.0024870085436244,0.014133718470414,160890768.73394,312446696.76131,160890768.71075,312446696.7516,43,2,0.10141709414376,4.0844097730585e-06
0.9213803707408,161071728.53501,312719048.42687,0.0024740115500633,-4.766923199407e-05,9.213803707408e-05,0.0024804625007419,0.014233979219004,161071728.55001,312719048.43192,161071728.52688,312719048.42226,43,2,0.10142743246335,4.0845454606976e-06
0.92385438229087,161251078.19141,312988393.92414,0.0024676537897373,-4.7835592997897e-05,9.2385438229087e-05,0.0024740115500633,0.01433423686292,161251078.20639,312988393.92919,161251078.1833,312988393.91957,43,2,0.10143777388392,4.0846803782427e-06
0.9263220360806,161428839.53172,313254776.98819,0.0024613873686202,-4.8001684545294e-05,9.263220360806e-05,0.0024676537897373,0.014434491451887,161428839.54668,313254776.99322,161428839.52364,313254776.98366,43,2,0.10144811840254,4.0848145363116e-06
0.92878342344922,161605033.96902,313518240.48377,0.0024552104845769,-4.8167510428034e-05,9.2878342344922e-05,0.0024613873686202,0.014534743034537,161605033.98395,313518240.48879,161605033.96097,313518240.47926,43,2,0.10145846601626,4.0849479453127e-06
0.9312386339338,161779682.49724,313778826.42347,0.0024491213828499,-4.8333074362122e-05,9.312386339338e-05,0.0024552104845769,0.014634991658444,161779682.51215,313778826.42849,161779682.48922,313778826.41901,43,2,0.10146881672205,4.0850806154506e-06
0.93368775531665,161952805.70218,314036575.9902,0.0024431183544946,-4.8498379989789e-05,9.3368775531665e-05,0.0024491213828499,0.014735237370155,161952805.71707,314036575.9952,161952805.69419,314036575.98576,43,2,0.10147917051683,4.0852125567312e-06
0.93613087367115,162124423.77213,314291529.5588,0.0024371997348751,-4.8663430881428e-05,9.3613087367115e-05,0.0024431183544946,0.014835480215216,162124423.78699,314291529.56379,162124423.76417,314291529.55439,43,2,0.10148952739748,4.0853437789671e-06
0.93856807340602,162294556.50816,314543726.71706,0.0024313639022213,-4.8828230537462e-05,9.3856807340602e-05,0.0024371997348751,0.014935720238201,162294556.52299,314543726.72205,162294556.50022,314543726.71269,43,2,0.10149988736085,4.0854742917823e-06
0.94099943730824,162463223.33409,314793206.28606,0.0024256092762404,-4.8992782390153e-05,9.4099943730824e-05,0.0024313639022213,0.01503595748274,162463223.3489,314793206.29103,162463223.32618,314793206.28171,43,2,0.10151025040373,4.0856041046176e-06
0.94342504658448,162630443.3061,315040006.33972,0.0024199343167848,-4.9157089805349e-05,9.4342504658448e-05,0.0024256092762404,0.015136191991543,162630443.32088,315040006.34468,162630443.29822,315040006.3354,43,2,0.10152061652285,4.0857332267346e-06
0.94584498090127,162796235.12207,315284164.22387,0.0024143375225693,-4.9321156084182e-05,9.4584498090127e-05,0.0024199343167848,0.01523642380643,162796235.13683,315284164.22882,162796235.11422,315284164.21959,43,2,0.10153098571493,4.0858616672208e-06
0.94825931842384,162960617.13061,315525716.57465,0.0024088174299391,-4.9484984464704e-05,9.4825931842384e-05,0.0024143375225693,0.015336652968347,162960617.14534,315525716.57959,162960617.12279,315525716.57039,43,2,0.10154135797664,4.0859894349936e-06
0.95066813585378,163123607.33977,315764699.33628,0.0024033726116839,-4.9648578123474e-05,9.5066813585378e-05,0.0024088174299391,0.015436879517397,163123607.35447,315764699.34121,163123607.33198,315764699.33205,43,2,0.10155173330461,4.0861165388049e-06
0.95307150846546,163285223.42554,316001147.77838,0.0023980016758975,-4.9811940177097e-05,9.5307150846546e-05,0.0024033726116839,0.01553710349286,163285223.44021,316001147.7833,163285223.41778,316001147.77418,43,2,0.10156211169544,4.0862429872448e-06
0.95546951014136,163445482.74001,316235096.51262,0.0023927032648799,-4.9975073683711e-05,9.5546951014136e-05,0.0023980016758975,0.015637324933214,163445482.75466,316235096.51753,163445482.73228,316235096.50845,43,2,0.10157249314569,4.086368788746e-06
0.95786221340624,163604402.31938,316466579.50897,0.0023874760540811,-5.0137981644429e-05,9.5786221340624e-05,0.0023927032648799,0.015737543876159,163604402.334,316466579.51387,163604402.31168,316466579.50483,43,2,0.10158287765188,4.0864939515874e-06
0.96024968946032,163761998.89157,316695630.11136,0.0023823187510828,-5.030066700474e-05,9.6024968946032e-05,0.0023874760540811,0.015837760358633,163761998.90616,316695630.11625,163761998.8839,316695630.10724,43,2,0.10159326521053,4.0866184838978e-06
0.9626320082114,163918288.88375,316922281.05289,0.0023772300946196,-5.0463132655859e-05,9.626320082114e-05,0.0023823187510828,0.015937974416837,163918288.89832,316922281.05777,163918288.87611,316922281.0488,43,2,0.10160365581809,4.08674239366e-06
0.96500923830602,164073288.42957,317146564.47062,0.0023722088536347,-5.0625381436045e-05,9.6500923830602e-05,0.0023772300946196,0.016038186086251,164073288.44411,317146564.47549,164073288.42196,317146564.46656,43,2,0.10161404947101,4.0868656887136e-06
0.96738144715965,164227013.37614,317368511.91982,0.0023672538263701,-5.0787416131873e-05,9.6738144715965e-05,0.0023722088536347,0.016138395401652,164227013.39065,317368511.92468,164227013.36856,317368511.91578,43,2,0.1016244461657,4.086988376759e-06
0.96974870098602,164379479.29087,317588154.38787,0.0023623638394905,-5.0949239479465e-05,9.6974870098602e-05,0.0023672538263701,0.016238602397136,164379479.30535,317588154.39272,164379479.28331,317588154.38386,43,2,0.10163484589855,4.0871104653605e-06
0.97211106482552,164530701.46805,317805522.30772,0.0023575377472381,-5.1110854165697e-05,9.7211106482552e-05,0.0023623638394905,0.016338807106132,164530701.48251,317805522.31255,164530701.46052,317805522.30373,43,2,0.1016452486659,4.0872319619493e-06
0.97446860257275,164680694.93528,318020645.57091,0.0023527744306186,-5.127226282935e-05,9.7446860257275e-05,0.0023575377472381,0.016439009561418,164680694.94971,318020645.57574,164680694.92778,318020645.56695,43,2,0.10165565446411,4.0873528738272e-06
0.97682137700337,164829474.45968,318233553.54029,0.0023480727966142,-5.143346806225e-05,9.7682137700337e-05,0.0023527744306186,0.016539209795142,164829474.47408,318233553.5451,164829474.45221,318233553.53635,43,2,0.10166606328949,4.0874732081688e-06
0.97916944979999,164977054.55389,318444275.06227,0.0023434317774263,-5.1594472410354e-05,9.7916944979999e-05,0.0023480727966142,0.016639407838833,164977054.56827,318444275.06708,164977054.54645,318444275.05837,43,2,0.10167647513831,4.0875929720253e-06
0.98151288157741,165123449.48198,318652838.47881,0.0023388503297439,-5.1755278374814e-05,9.8151288157741e-05,0.0023434317774263,0.016739603723419,165123449.49633,318652838.48361,165123449.47457,318652838.47493,43,2,0.10168689000687,4.0877121723267e-06
0.98385173190716,165268673.26513,318859271.63896,0.0023343274340379,-5.1915888413015e-05,9.8385173190716e-05,0.0023388503297439,0.01683979747924,165268673.27945,318859271.64375,165268673.25774,318859271.6351,43,2,0.1016973078914,4.0878308158848e-06
0.98618605934119,165412739.68709,319063601.91013,0.0023298620938794,-5.2076304939569e-05,9.8618605934119e-05,0.0023343274340379,0.016939989136067,165412739.70139,319063601.91491,165412739.67974,319063601.9063,43,2,0.10170772878814,4.0879489093961e-06
0.98851592143507,165555662.29966,319265856.18907,0.0023254533352822,-5.2236530327294e-05,9.8851592143507e-05,0.0023298620938794,0.017040178723109,165555662.31393,319265856.19383,165555662.29233,319265856.18526,43,2,0.10171815269329,4.0880664594438e-06
0.99084137477036,165697454.42779,319466060.91242,0.0023211002060671,-5.2396566908157e-05,9.9084137477036e-05,0.0023254533352822,0.017140366269033,165697454.44203,319466060.91717,165697454.42049,319466060.90863,43,2,0.10172857960306,4.0881834725012e-06
0.99316247497642,165838129.17474,319664242.06709,0.0023168017752485,-5.2556416974195e-05,9.9316247497642e-05,0.0023211002060671,0.017240551801972,165838129.18896,319664242.07184,165838129.16747,319664242.06333,43,2,0.10173900951362,4.0882999549334e-06
0.99547927675167,165977699.42693,319860425.20029,0.0023125571324412,-5.2716082778403e-05,9.9547927675167e-05,0.0023168017752485,0.017340735349542,165977699.44112,319860425.20502,165977699.41969,319860425.19656,43,2,0.10174944242113,4.0884159130001e-06
0.99779183388411,166116177.85878,320054635.42924,0.0023083653872878,-5.2875566535609e-05,9.9779183388411e-05,0.0023125571324412,0.017440916938851,166116177.87294,320054635.43396,166116177.85157,320054635.42552,43,2,0.10175987832174,4.0885313528578e-06
1.0001001992714,166231021.08806,320200800.80312,0.0023052277999778,-5.3030860195665e-05,0.0001,0.0023083653872878,0.017541053046308,166231021.10164,320200800.80793,166231021.08122,320200800.79949,43,2,0.10177031276539,4.0886351935913e-06
1.0024054270714,165848660.89514,319331137.98504,0.0023242760182705,-5.3097779436936e-05,0.0001,0.0023052277999778,0.017640233512896,165848660.90253,319331137.98975,165848660.89109,319331137.98002,41,2,0.10178065287162,4.0884946631841e-06
1.0047297030896,165466128.87404,318461624.79125,0.0023433014526855,-5.3164723759447e-05,0.0001,0.0023242760182705,0.017739421605634,165466128.88141,318461624.79594,165466128.87002,318461624.78625,41,2,0.10179099874652,4.0883540801068e-06
1.0070730045423,165083462.23665,317592346.80348,0.0023625322133565,-5.3231686637698e-05,0.0001,0.0023433014526855,0.017838607616271,165083462.24398,317592346.80815,165083462.23264,317592346.79851,41,2,0.10180134938849,4.0882134580625e-06
1.0094355367557,164700660.42521,316723303.68358,0.0023819686791538,-5.3298668162811e-05,0.0001,0.0023625322133565,0.017937791632995,164700660.43251,316723303.68823,164700660.42122,316723303.67863,41,2,0.10181170481448,4.0880727968597e-06
1.0118175054348,164317723.26311,315854495.96267,0.002401613589254,-5.3365668359132e-05,0.0001,0.0023819686791538,0.01803697364502,164317723.27039,315854495.9673,164317723.25914,315854495.95775,41,2,0.10182206503117,4.0879320964475e-06
1.0142191190241,163934650.56956,314985924.16519,0.0024214697018613,-5.3432687251725e-05,0.0001,0.002401613589254,0.018136153642488,163934650.5768,314985924.16979,163934650.5656,314985924.16029,41,2,0.10183243004535,4.087791356773e-06
1.016640588726,163551442.16347,314117588.81772,0.0024415398188892,-5.3499724865689e-05,0.0001,0.0024214697018613,0.018235331615457,163551442.17068,314117588.82231,163551442.15953,314117588.81284,41,2,0.10184279986382,4.0876505777837e-06
1.0190821285448,163168097.86343,313249490.44896,0.0024618267865114,-5.3566781226166e-05,0.0001,0.0024415398188892,0.018334507553911,163168097.87061,313249490.45352,163168097.85951,313249490.44411,41,2,0.1018531744934,4.0875097594267e-06
1.0215439553314,162784617.4877,312381629.5897,0.0024823334959766,-5.363385635834e-05,0.0001,0.0024618267865114,0.018433681447759,162784617.49486,312381629.59424,162784617.4838,312381629.58487,41,2,0.10186355394091,4.0873689016491e-06
1.0240262888273,162401000.85424,311514006.77286,0.0025030628844368,-5.3700950287436e-05,0.0001,0.0024823334959766,0.018532853286834,162401000.86136,311514006.77738,162401000.85035,311514006.76805,41,2,0.1018739382132,4.087228004398e-06
1.0265293517118,162017247.78065,310646622.53348,0.0025240179357941,-5.3768063038722e-05,0.0001,0.0025030628844368,0.018632023060895,162017247.78774,310646622.53798,162017247.77678,310646622.5287,41,2,0.10188432731712,4.0870870676203e-06
1.0290533696476,161633358.08424,309779477.40877,0.0025452016815647,-5.3835194637509e-05,0.0001,0.0025240179357941,0.01873119075962,161633358.09131,309779477.41325,161633358.08039,309779477.40401,41,2,0.10189472125954,4.0869460912628e-06
1.0315985713291,161249331.58199,308912571.93808,0.0025666172017611,-5.3902345109149e-05,0.0001,0.0025452016815647,0.018830356372613,161249331.58902,308912571.94254,161249331.57815,308912571.93335,41,2,0.10190512004734,4.0868050752724e-06
1.0341651885309,160865168.09054,308045906.66294,0.0025882676257934,-5.3969514479035e-05,0.0001,0.0025666172017611,0.018929519889396,160865168.09755,308045906.66738,160865168.08672,308045906.65823,41,2,0.10191552368742,4.0866640195956e-06
1.0367534561567,160480867.42623,307179482.12707,0.0026101561333885,-5.4036702772602e-05,0.0001,0.0025882676257934,0.019028681299413,160480867.43321,307179482.13149,160480867.42243,307179482.12239,41,2,0.10192593218667,4.0865229241791e-06
1.0393636122901,160096429.40507,306313298.87639,0.0026322859555308,-5.4103910015326e-05,0.0001,0.0026101561333885,0.019127840592029,160096429.41202,306313298.88079,160096429.40129,306313298.87173,41,2,0.10193634555203,4.0863817889694e-06
1.0419958982456,159711853.84277,305447357.45904,0.0026546603754207,-5.4171136232727e-05,0.0001,0.0026322859555308,0.019226997756524,159711853.84968,305447357.46342,159711853.839,305447357.4544,41,2,0.10194676379042,4.0862406139129e-06
1.044650558621,159327140.55468,304581658.42537,0.0026772827294554,-5.4238381450363e-05,0.0001,0.0026546603754207,0.019326152782101,159327140.56157,304581658.42973,159327140.55093,304581658.42076,41,2,0.1019571869088,4.0860993989558e-06
1.0473278413505,158942289.35587,303716202.32801,0.0027001564082293,-5.4305645693834e-05,0.0001,0.0026772827294554,0.019425305657876,158942289.36273,303716202.33234,158942289.35213,303716202.32341,41,2,0.10196761491411,4.0859581440445e-06
1.0500279977587,158557300.06107,302850989.7218,0.002723284857557,-5.4372928988783e-05,0.0001,0.0027001564082293,0.019524456372883,158557300.0679,302850989.72611,158557300.05736,302850989.71723,41,2,0.10197804781333,4.0858168491251e-06
1.0527512826163,158172172.48471,301986021.1639,0.0027466715795171,-5.4440231360892e-05,0.0001,0.002723284857557,0.019623604916072,158172172.49151,301986021.16819,158172172.48101,301986021.15935,41,2,0.10198848561344,4.0856755141437e-06
1.0554979541958,157786906.44089,301121297.21373,0.00277032013352,-5.4507552835884e-05,0.0001,0.0027466715795171,0.019722751276307,157786906.44766,301121297.218,157786906.43721,301121297.2092,41,2,0.10199892832145,4.0855341390462e-06
1.0582682743293,157401501.74341,300256818.43301,0.0027942341373971,-5.4574893439523e-05,0.0001,0.00277032013352,0.019821895442366,157401501.75015,300256818.43726,157401501.73975,300256818.42851,41,2,0.10200937594435,4.0853927237786e-06
1.0610625084667,157015958.20573,299392585.38579,0.0028184172685149,-5.4642253197613e-05,0.0001,0.0027942341373971,0.019921037402938,157015958.21245,299392585.39002,157015958.20209,299392585.38131,41,2,0.10201982848918,4.0852512682866e-06
1.0638809257352,156630275.64103,298528598.63845,0.0028428732649129,-5.4709632136e-05,0.0001,0.0028184172685149,0.020020177146627,156630275.64772,298528598.64266,156630275.6374,298528598.634,41,2,0.10203028596297,4.0851097725159e-06
1.0667237990001,156244453.86215,297664858.75971,0.0028676059264658,-5.4777030280567e-05,0.0001,0.0028428732649129,0.020119314661946,156244453.86881,297664858.7639,156244453.85854,297664858.75528,41,2,0.10204074837276,4.0849682364123e-06
1.0695914049266,155858492.68163,296801366.32066,0.0028926191160722,-5.484444765724e-05,0.0001,0.0028676059264658,0.020218449937318,155858492.68826,296801366.32483,155858492.67804,296801366.31625,41,2,0.10205121572561,4.0848266599213e-06
1.0724840240427,155472391.9117,295938121.89475,0.0029179167608677,-5.4911884291984e-05,0.0001,0.0028926191160722,0.020317582961076,155472391.9183,295938121.8989,155472391.90812,295938121.89037,41,2,0.10206168802861,4.0846850429884e-06
1.0754019408035,155086151.36428,295075126.05785,0.0029435028534669,-5.4979340210803e-05,0.0001,0.0029179167608677,0.02041671372146,155086151.37085,295075126.06198,155086151.36072,295075126.05349,41,2,0.10207216528883,4.0845433855588e-06
1.078345443657,154699770.85097,294212379.38823,0.0029693814532304,-5.504681543974e-05,0.0001,0.0029435028534669,0.020515842206619,154699770.85752,294212379.39234,154699770.84743,294212379.38389,41,2,0.10208264751338,4.0844016875781e-06
1.0813148251102,154313250.18309,293349882.46656,0.0029955566875607,-5.511431000488e-05,0.0001,0.0029693814532304,0.020614968404607,154313250.1896,293349882.47065,154313250.17956,293349882.46225,41,2,0.10209313470935,4.0842599489913e-06
1.0843103817978,153926589.17162,292487635.87599,0.0030220327532281,-5.5181823932345e-05,0.0001,0.0029955566875607,0.020714092303382,153926589.1781,292487635.88006,153926589.1681,292487635.8717,41,2,0.10210362688389,4.0841181697436e-06
1.087332414551,153539787.62725,291625640.2021,0.0030488139177235,-5.5249357248296e-05,0.0001,0.0030220327532281,0.020813213890809,153539787.63371,291625640.20615,153539787.62376,291625640.19783,41,2,0.10211412404411,4.0839763497801e-06
1.0903812284687,153152845.36038,290763896.03296,0.0030759045206434,-5.5316909978932e-05,0.0001,0.0030488139177235,0.020912333154654,153152845.36681,290763896.03699,153152845.35691,290763896.02871,41,2,0.10212462619718,4.0838344890457e-06
1.0934571329894,152765762.18109,289902403.95911,0.0031033089751046,-5.5384482150494e-05,0.0001,0.0030759045206434,0.021011450082585,152765762.18749,289902403.96312,152765762.17763,289902403.95489,41,2,0.10213513335024,4.0836925874855e-06
1.0965604419645,152378537.89916,289041164.57363,0.0031310317691916,-5.5452073789258e-05,0.0001,0.0031033089751046,0.021110564662174,152378537.90553,289041164.57762,152378537.89571,289041164.56942,41,2,0.10214564551048,4.0835506450441e-06
1.0996914737337,151991172.32407,288180178.47208,0.0031590774674352,-5.5519684921538e-05,0.0001,0.0031310317691916,0.021209676880888,151991172.33042,288180178.47605,151991172.32064,288180178.4679,41,2,0.10215616268507,4.0834086616663e-06
1.1028505512011,151603665.26501,287319446.2526,0.003187450712325,-5.5587315573689e-05,0.0001,0.0031590774674352,0.021308786726099,151603665.27133,287319446.25655,151603665.2616,287319446.24845,41,2,0.10216668488121,4.0832666372967e-06
1.1060380019134,151216016.53086,286458968.51587,0.0032161562258568,-5.5654965772101e-05,0.0001,0.003187450712325,0.021407894185071,151216016.53715,286458968.5198,151216016.52747,286458968.51174,41,2,0.10217721210612,4.0831245718801e-06
1.1092541581393,150828225.93022,285598745.86514,0.0032451988111135,-5.5722635543201e-05,0.0001,0.0032161562258568,0.021506999244969,150828225.93649,285598745.86905,150828225.92684,285598745.86103,41,2,0.10218774436701,4.0829824653608e-06
1.1124993569504,150440293.27138,284738778.90627,0.0032745833538826,-5.5790324913456e-05,0.0001,0.0032451988111135,0.021606101892851,150440293.27762,284738778.91016,150440293.26802,284738778.90218,41,2,0.10219828167111,4.0828403176832e-06
1.1157739403043,150052218.36235,283879068.24771,0.0033043148243111,-5.5858033909368e-05,0.0001,0.0032745833538826,0.021705202115671,150052218.36856,283879068.25159,150052218.359,283879068.24365,41,2,0.10220882402568,4.0826981287918e-06
1.1190782551286,149664001.01083,283019614.50056,0.0033343982785967,-5.5925762557475e-05,0.0001,0.0033043148243111,0.021804299900277,149664001.01701,283019614.50442,149664001.0075,283019614.49652,41,2,0.10221937143796,4.0825558986308e-06
1.1224126534072,149275641.02425,282160418.27855,0.003364838860719,-5.5993510884354e-05,0.0001,0.0033343982785967,0.021903395233406,149275641.03041,282160418.28239,149275641.02094,282160418.27453,41,2,0.10222992391522,4.0824136271443e-06
1.1257774922679,148887138.20976,281301480.19808,0.0033956418042098,-5.6061278916615e-05,0.0001,0.003364838860719,0.022002488101689,148887138.21587,281301480.2019,148887138.20646,281301480.19407,42,2,0.10224048146475,4.0822713142766e-06
1.1291731340721,148498492.37418,280442800.87824,0.0034268124339644,-5.6129066680907e-05,0.0001,0.0033956418042098,0.022101578491645,148498492.38027,280442800.88203,148498492.3709,280442800.87425,42,2,0.10225104409384,4.0821289599716e-06
1.1325999465061,148109703.32409,279584380.9408,0.0034583561680935,-5.6196874203912e-05,0.0001,0.0034268124339644,0.022200666389684,148109703.33016,279584380.94458,148109703.32083,279584380.93684,42,2,0.10226161180979,4.0819865641732e-06
1.1360583026742,147720770.86578,278726221.01028,0.0034902785198201,-5.626470151235e-05,0.0001,0.0034583561680935,0.0222997517821,147720770.87182,278726221.01404,147720770.86253,278726221.00634,42,2,0.10227218461991,4.0818441268255e-06
1.139548581194,147331694.80524,277868321.71392,0.0035225850994182,-5.6332548632974e-05,0.0001,0.0034902785198201,0.022398834655076,147331694.81125,277868321.71766,147331694.80201,277868321.71,42,2,0.10228276253153,4.0817016478722e-06
1.1430711662934,146942474.9482,277010683.68173,0.0035552816161982,-5.6400415592571e-05,0.0001,0.0035225850994182,0.022497914994677,146942474.95418,277010683.68545,146942474.94498,277010683.67783,42,2,0.102293345552,4.081559127257e-06
1.1466264479096,146553111.10009,276153307.54648,0.0035883738805375,-5.6468302417965e-05,0.0001,0.0035552816161982,0.022596992786853,146553111.10605,276153307.55018,146553111.09689,276153307.54261,42,2,0.10230393368865,4.0814165649237e-06
1.1502148217902,146163603.06611,275296193.94376,0.0036218678059592,-5.6536209136012e-05,0.0001,0.0035883738805375,0.022696068017438,146163603.07203,275296193.94744,146163603.06292,275296193.93991,42,2,0.10231452694885,4.0812739608158e-06
1.1538366895961,145773950.65113,274439343.51197,0.0036557694112592,-5.6604135773603e-05,0.0001,0.0036218678059592,0.022795140672143,145773950.65703,274439343.51563,145773950.64796,274439343.50813,42,2,0.10232512533998,4.0811313148769e-06
1.1574924590074,145384153.6598,273582756.89233,0.0036900848226835,-5.6672082357662e-05,0.0001,0.0036557694112592,0.022894210736562,145384153.66568,273582756.89597,145384153.65665,273582756.88852,42,2,0.1023357288694,4.0809886270503e-06
1.1611825438301,144994211.89648,272726434.72895,0.0037248202761571,-5.6740048915145e-05,0.0001,0.0036900848226835,0.022993278196164,144994211.90232,272726434.73257,144994211.89334,272726434.72516,42,2,0.10234633754452,4.0808458972796e-06
1.1649073641062,144604125.16525,271870377.66878,0.0037599821195647,-5.6808035473042e-05,0.0001,0.0037248202761571,0.023092343036299,144604125.17107,271870377.67239,144604125.16213,271870377.66502,42,2,0.10235695137275,4.080703125508e-06
1.1686673462258,144213893.26996,271014586.36171,0.0037955768150869,-5.6876042058376e-05,0.0001,0.0037599821195647,0.023191405242188,144213893.27575,271014586.3653,144213893.26685,271014586.35797,42,2,0.10236757036149,4.0805603116788e-06
1.1724629230409,143823516.01416,270159061.46053,0.0038316109415906,-5.69440686982e-05,0.0001,0.0037955768150869,0.023290464798928,143823516.01993,270159061.4641,143823516.01107,270159061.45681,42,2,0.10237819451817,4.0804174557352e-06
1.1762945339825,143432993.20119,269303803.62095,0.0038680911970772,-5.7012115419601e-05,0.0001,0.0038316109415906,0.02338952169149,143432993.20693,269303803.6245,143432993.19811,269303803.61725,42,2,0.10238882385023,4.0802745576202e-06
1.1801626251795,143042324.63408,268448813.50168,0.003905024401189,-5.7080182249694e-05,0.0001,0.0038680911970772,0.023488575904712,143042324.6398,268448813.50521,143042324.63102,268448813.498,42,2,0.10239945836512,4.080131617277e-06
1.1840676495807,142651510.11565,267594091.76439,0.0039424174977762,-5.7148269215627e-05,0.0001,0.003905024401189,0.023587627423306,142651510.12134,267594091.7679,142651510.11261,267594091.76073,42,2,0.10241009807029,4.0799886346486e-06
1.1880100670785,142260549.44845,266739639.07375,0.0039802775575254,-5.7216376344578e-05,0.0001,0.0039424174977762,0.023686676231849,142260549.45411,266739639.07725,142260549.44542,266739639.07012,42,2,0.10242074297321,4.0798456096778e-06
1.191990344636,141869442.43479,265885456.09749,0.004018611780651,-5.7284503663756e-05,0.0001,0.0039802775575254,0.023785722314786,141869442.44042,265885456.10096,141869442.43177,265885456.09387,42,2,0.10243139308137,4.0797025423075e-06
1.1960089564167,141478188.87672,265031543.50635,0.0040574274996526,-5.7352651200397e-05,0.0001,0.004018611780651,0.023884765656427,141478188.88232,265031543.5098,141478188.87372,265031543.50275,42,2,0.10244204840224,4.0795594324806e-06
1.2000663839163,141086788.57606,264177901.97416,0.0040967321821394,-5.7420818981768e-05,0.0001,0.0040574274996526,0.023983806240945,141086788.58164,264177901.9776,141086788.57307,264177901.97059,42,2,0.10245270894332,4.0794162801397e-06
1.2041631160985,140695241.33439,263324532.17785,0.0041365334337216,-5.7489007035165e-05,0.0001,0.0040967321821394,0.024082844052374,140695241.33995,263324532.18127,140695241.33142,263324532.1743,42,2,0.10246337471213,4.0792730852275e-06
1.2082996495322,140303546.95306,262471434.79746,0.0041768390009756,-5.755721538791e-05,0.0001,0.0041365334337216,0.02418187907461,140303546.95859,262471434.80086,140303546.9501,262471434.79393,42,2,0.10247404571619,4.0791298476868e-06
1.2124764885332,139911705.23317,261618610.51617,0.0042176567744782,-5.7625444067354e-05,0.0001,0.0041768390009756,0.024280911291406,139911705.23868,261618610.51955,139911705.23024,261618610.51266,42,2,0.10248472196301,4.0789865674599e-06
1.2166941453077,139519715.97562,260766060.02033,0.0042589947919176,-5.7693693100876e-05,0.0001,0.0042176567744782,0.024379940686374,139519715.98109,260766060.02369,139519715.97269,260766060.01684,42,2,0.10249540346013,4.0788432444895e-06
1.2209531400996,139127578.98104,259913783.99947,0.0043008612412812,-5.776196251588e-05,0.0001,0.0042589947919176,0.024478967242978,139127578.98649,259913784.00282,139127578.97813,259913783.99601,42,2,0.10250609021511,4.078699878718e-06
1.2252540013409,138735294.04987,259061783.14634,0.0043432644641212,-5.7830252339798e-05,0.0001,0.0043008612412812,0.024577990944539,138735294.0553,259061783.14967,138735294.04698,259061783.1429,42,2,0.10251678223549,4.0785564700878e-06
1.229597265805,138342860.98234,258210058.15692,0.0043862129589,-5.7898562600085e-05,0.0001,0.0043432644641212,0.024677011774226,138342860.98774,258210058.16023,138342860.97945,258210058.1535,42,2,0.10252747952885,4.0784130185412e-06
1.2339834787639,137950279.57842,257358609.73046,0.0044297153844217,-5.7966893324225e-05,0.0001,0.0043862129589,0.024776029715062,137950279.58379,257358609.73375,137950279.57555,257358609.72706,42,2,0.10253818210275,4.0782695240205e-06
1.2384131941483,137557549.6379,256507438.56948,0.0044737805633476,-5.8035244539722e-05,0.0001,0.0044297153844217,0.024875044749916,137557549.64325,256507438.57276,137557549.63505,256507438.5661,42,2,0.10254888996478,4.0781259864679e-06
1.2428869747116,137164670.96037,255656545.37983,0.0045184174857979,-5.8103616274108e-05,0.0001,0.0044737805633476,0.024974056861502,137164670.9657,255656545.38308,137164670.95754,255656545.37647,42,2,0.10255960312253,4.0779824058257e-06
1.2474053921974,136771643.34519,254805930.87067,0.0045636353130479,-5.8172008554936e-05,0.0001,0.0045184174857979,0.025073066032382,136771643.35049,254805930.87391,136771643.34237,254805930.86733,42,2,0.10257032158359,4.077838782036e-06
1.2519690275105,136378466.59154,253955595.75455,0.0046094433813122,-5.8240421409782e-05,0.0001,0.0045636353130479,0.025172072244958,136378466.59681,253955595.75777,136378466.58873,253955595.75124,42,2,0.10258104535558,4.0776951150408e-06
1.2565784708918,135985140.49838,253105540.7474,0.004655851205629,-5.8308854866246e-05,0.0001,0.0046094433813122,0.025271075481475,135985140.50362,253105540.7506,135985140.49558,253105540.7441,42,2,0.10259177444612,4.0775514047822e-06
1.2612343220974,135591664.86449,252255766.56854,0.0047028684838387,-5.8377308951948e-05,0.0001,0.004655851205629,0.025370075724013,135591664.86971,252255766.57172,135591664.86171,252255766.56526,42,2,0.10260250886281,4.0774076512022e-06
1.2659371905813,135198039.48847,251406273.94075,0.0047505051006671,-5.8445783694529e-05,0.0001,0.0047028684838387,0.025469072954493,135198039.49367,251406273.94392,135198039.48571,251406273.9375,42,2,0.10261324861331,4.0772638542428e-06
1.2706876956819,134804264.16873,250557063.59029,0.0047987711319094,-5.851427912165e-05,0.0001,0.0047505051006671,0.025568067154669,134804264.17391,250557063.59344,134804264.16599,250557063.58706,42,2,0.10262399370524,4.0771200138459e-06
1.2754864668138,134410338.7035,249708136.2469,0.0048476768487241,-5.8582795260994e-05,0.0001,0.0047987711319094,0.025667058306127,134410338.70865,249708136.25003,134410338.70077,249708136.24368,42,2,0.10263474414625,4.0769761299532e-06
1.2803341436626,134016262.89083,248859492.64383,0.004897232722034,-5.865133214026e-05,0.0001,0.0048476768487241,0.025766046390286,134016262.89595,248859492.64694,134016262.88811,248859492.64063,42,2,0.10264549994401,4.0768322025068e-06
1.2852313763846,133622036.5286,248011133.5179,0.0049474494270426,-5.8719889787168e-05,0.0001,0.004897232722034,0.025865031388392,133622036.53369,248011133.52099,133622036.52589,248011133.51472,42,2,0.10265626110616,4.0766882314483e-06
1.2901788258116,133227659.41453,247163059.60949,0.0049983378478658,-5.8788468229452e-05,0.0001,0.0049474494270426,0.025964013281519,133227659.4196,247163059.61257,133227659.41183,247163059.60633,42,2,0.10266702764038,4.0765442167195e-06
1.2951771636595,132833131.34617,246315271.6626,0.0050499090822834,-5.8857067494868e-05,0.0001,0.0049983378478658,0.026062992050563,132833131.35122,246315271.66566,132833131.34349,246315271.65947,42,2,0.10267779955435,4.0764001582621e-06
1.3002270727418,132438452.12094,245467770.42487,0.0051021744466145,-5.8925687611182e-05,0.0001,0.0050499090822834,0.026161967676244,132438452.12596,245467770.42791,132438452.11827,245467770.42176,42,2,0.10268857685574,4.0762560560178e-06
1.3053292471884,132043621.53607,244620556.64758,0.0051551454807191,-5.8994328606181e-05,0.0001,0.0051021744466145,0.026260940139103,132043621.54106,244620556.65061,132043621.53342,244620556.64449,42,2,0.10269935955225,4.0761119099283e-06
1.3104843926691,131648639.38867,243773631.08573,0.0052088339531312,-5.9062990507663e-05,0.0001,0.0051551454807191,0.026359909419497,131648639.39364,243773631.08873,131648639.38604,243773631.08265,42,2,0.10271014765157,4.0759677199352e-06
1.3156932266223,131253505.47571,242926994.49802,0.0052632518663247,-5.9131673343441e-05,0.0001,0.0052088339531312,0.026458875497599,131253505.48066,242926994.50101,131253505.47309,242926994.49496,42,2,0.10272094116139,4.0758234859801e-06
1.3209564784886,130858219.59402,242080647.64691,0.0053184114621201,-5.9200377141341e-05,0.0001,0.0052632518663247,0.026557838353396,130858219.59894,242080647.64989,130858219.59141,242080647.64388,42,2,0.10273174008943,4.0756792080045e-06
1.3262748899507,130462781.54029,241234591.29867,0.0053743252272305,-5.9269101929201e-05,0.0001,0.0053184114621201,0.026656797966684,130462781.54519,241234591.30163,130462781.5377,241234591.29566,42,2,0.1027425444434,4.07553488595e-06
1.3316492151779,130067191.11111,240388826.22334,0.0054310058989579,-5.9337847734871e-05,0.0001,0.0053743252272305,0.02675575431707,130067191.11598,240388826.22628,130067191.10853,240388826.22035,42,2,0.10275335423101,4.0753905197581e-06
1.3370802210769,129671448.10293,239543353.19485,0.0054884664710373,-5.9406614586209e-05,0.0001,0.0054310058989579,0.026854707383964,129671448.10778,239543353.19777,129671448.10037,239543353.19187,42,2,0.10276416945999,4.0752461093702e-06
1.3425686875479,129275552.31211,238698172.99097,0.0055467201996383,-5.9475402511086e-05,0.0001,0.0054884664710373,0.026953657146583,129275552.31693,238698172.99388,129275552.30956,238698172.98802,42,2,0.10277499013806,4.075101654728e-06
1.3481154077476,128879503.53488,237853286.39341,0.0056057806095273,-5.9544211537378e-05,0.0001,0.0055467201996383,0.027052603583941,128879503.53968,237853286.3963,128879503.53234,237853286.39047,42,2,0.10278581627296,4.0749571557728e-06
1.3537211883571,128483301.56739,237008694.1878,0.0056656615003923,-5.9613041692973e-05,0.0001,0.0056057806095273,0.027151546674853,128483301.57217,237008694.19067,128483301.56487,237008694.18489,42,2,0.10279664787241,4.074812612446e-06
1.3593868498575,128086946.2057,236164397.16376,0.0057263769533405,-5.9681893005761e-05,0.0001,0.0056656615003923,0.02725048639793,128086946.21045,236164397.16662,128086946.20319,236164397.16087,42,2,0.10280748494417,4.0746680246892e-06
1.3651132268108,127690437.24576,235320396.11492,0.0057879413375681,-5.9750765503641e-05,0.0001,0.0057263769533405,0.027349422731575,127690437.25049,235320396.11776,127690437.24326,235320396.11204,42,2,0.10281832749597,4.0745233924436e-06
1.3709011681484,127293774.48347,234476691.83893,0.0058503693172139,-5.9819659214516e-05,0.0001,0.0057879413375681,0.027448355653983,127293774.48817,234476691.84175,127293774.48098,234476691.83608,42,2,0.10282917553556,4.0743787156508e-06
1.3767515374656,126896957.71463,233633285.13755,0.0059136758583959,-5.9888574166292e-05,0.0001,0.0058503693172139,0.027547285143135,126896957.71931,233633285.14035,126896957.71216,233633285.13471,42,2,0.10284002907069,4.074233994252e-06
1.382665213324,126499986.735,232790176.81662,0.0059778762364413,-5.9957510386879e-05,0.0001,0.0059136758583959,0.027646211176797,126499986.73966,232790176.81941,126499986.73255,232790176.8138,42,2,0.10285088810912,4.0740892281888e-06
1.3886430895604,126102861.34027,231947367.68614,0.0060429860433131,-6.0026467904187e-05,0.0001,0.0059778762364413,0.02774513373252,126102861.3449,231947367.68891,126102861.33783,231947367.68334,42,2,0.1028617526586,4.0739444174025e-06
1.3946860756038,125705581.32608,231104858.5603,0.0061090211952401,-6.0095446746128e-05,0.0001,0.0060429860433131,0.027844052787631,125705581.33069,231104858.56305,125705581.32365,231104858.55752,42,2,0.10287262272688,4.0737995618344e-06
1.400795096799,125308146.48803,230262650.25748,0.006175997940558,-6.0164446940613e-05,0.0001,0.0061090211952401,0.027942968319236,125308146.49261,230262650.26022,125308146.48561,230262650.25472,42,2,0.10288349832174,4.073654661426e-06
1.4069710947396,124910556.62167,229420743.60035,0.0062439328677647,-6.0233468515551e-05,0.0001,0.006175997940558,0.028041880304213,124910556.62623,229420743.60307,124910556.61927,229420743.59761,42,2,0.10289437945093,4.0735097161186e-06
1.4132150276073,124512811.52255,228579139.41583,0.0063128429138002,-6.0302511498848e-05,0.0001,0.0062439328677647,0.028140788719211,124512811.52709,228579139.41854,124512811.52016,228579139.41311,42,2,0.10290526612221,4.0733647258537e-06
1.4195278705211,124114910.98618,227737838.5352,0.0063827453725569,-6.0371575918406e-05,0.0001,0.0063128429138002,0.028239693540645,124114910.99069,227737838.53789,124114910.9838,227737838.5325,42,2,0.10291615834335,4.0732196905726e-06
1.4259106158937,123716854.80806,226896841.7941,0.0064536579036235,-6.0440661802124e-05,0.0001,0.0063827453725569,0.028338594744698,123716854.81255,226896841.79677,123716854.8057,226896841.79142,42,2,0.10292705612213,4.0730746102168e-06
1.4323642737973,123318642.7837,226056150.03255,0.006525598541279,-6.050976917789e-05,0.0001,0.0064536579036235,0.02843749230731,123318642.78817,226056150.03521,123318642.78135,226056150.02989,42,2,0.10293795946629,4.0729294847277e-06
1.4388898723386,122920274.70861,225215764.09503,0.006598585703734,-6.0578898073588e-05,0.0001,0.006525598541279,0.028536386204181,122920274.71305,225215764.09767,122920274.70627,225215764.09239,42,2,0.10294886838361,4.0727843140467e-06
1.4454884580423,122521750.3783,224375684.83052,0.0066726382026339,-6.0648048517092e-05,0.0001,0.006598585703734,0.028635276410766,122521750.38273,224375684.83314,122521750.37598,224375684.82789,42,2,0.10295978288185,4.0726390981153e-06
1.452161096245,122123069.58834,223535913.09248,0.0067477752528326,-6.0717220536265e-05,0.0001,0.0066726382026339,0.028734162902272,122123069.59274,223535913.09508,122123069.58603,223535913.08987,42,2,0.10297070296879,4.0724938368751e-06
1.4589088714978,121724232.1343,222696449.73895,0.0068240164824387,-6.0786414158958e-05,0.0001,0.0067477752528326,0.02883304565365,121724232.13867,222696449.74154,121724232.132,222696449.73636,42,2,0.10298162865218,4.0723485302674e-06
1.4657328879802,121325237.8118,221857295.63259,0.0069013819431531,-6.0855629413009e-05,0.0001,0.0068240164824387,0.028931924639601,121325237.81615,221857295.63517,121325237.80952,221857295.63002,42,2,0.10299255993979,4.0722031782339e-06
1.4726342699234,120926086.41652,221018451.64068,0.0069798921208949,-6.0924866326243e-05,0.0001,0.0069013819431531,0.029030799834563,120926086.42085,221018451.64324,120926086.41426,221018451.63813,42,2,0.10300349683937,4.0720577807161e-06
1.4796141620443,120526777.74421,220179918.6352,0.0070595679467383,-6.0994124926466e-05,0.0001,0.0069798921208949,0.029129671212714,120526777.74852,220179918.63774,120526777.74196,220179918.63267,42,2,0.10301443935869,4.0719123376556e-06
1.486673729991,120127311.59069,219341697.49284,0.0071404308081588,-6.1063405241469e-05,0.0001,0.0070595679467383,0.029228538747964,120127311.59497,219341697.49537,120127311.58844,219341697.49033,42,2,0.10302538750551,4.0717668489941e-06
1.4938141607992,119727687.75183,218503789.09509,0.0072225025606064,-6.1132707299024e-05,0.0001,0.0071404308081588,0.029327402413954,119727687.75609,218503789.0976,119727687.7496,218503789.09259,42,2,0.10303634128757,4.0716213146733e-06
1.5010366633598,119327906.02365,217666194.32822,0.0073058055394122,-6.1202031126879e-05,0.0001,0.0072225025606064,0.029426262184053,119327906.02788,217666194.33071,119327906.02143,217666194.32574,42,2,0.10304730071263,4.0714757346348e-06
1.5083424688992,118927966.20222,216828914.08338,0.0073903625720416,-6.1271376752765e-05,0.0001,0.0073058055394122,0.02952511803135,118927966.20644,216828914.08586,118927966.20002,216828914.08093,42,2,0.10305826578843,4.0713301088204e-06
1.5157328314712,118527868.08378,215991949.25663,0.0074761969907042,-6.1340744204385e-05,0.0001,0.0073903625720416,0.029623969928654,118527868.08797,215991949.2591,118527868.08159,215991949.2542,42,2,0.10306923652272,4.071184437172e-06
1.5232090284619,118127611.46465,215155300.74897,0.0075633326453329,-6.1410133509418e-05,0.0001,0.0074761969907042,0.029722817848491,118127611.46882,215155300.75142,118127611.46247,215155300.74655,42,2,0.10308021292323,4.0710387196314e-06
1.5307723611073,117727196.14132,214318969.46638,0.0076517939169431,-6.1479544695517e-05,0.0001,0.0075633326453329,0.029821661763093,117727196.14547,214318969.46881,117727196.13916,214318969.46398,42,2,0.10309119499769,4.0708929561406e-06
1.5384241550242,117326621.91042,213482956.31991,0.0077416057313854,-6.1548977790303e-05,0.0001,0.0076517939169431,0.029920501644404,117326621.91455,213482956.32233,117326621.90827,213482956.31753,42,2,0.10310218275383,4.0707471466416e-06
1.5461657607556,116925888.56875,212647262.22569,0.0078327935735057,-6.1618432821369e-05,0.0001,0.0077416057313854,0.030019337464066,116925888.57285,212647262.22809,116925888.56661,212647262.22332,42,2,0.10311317619938,4.0706012910763e-06
1.5539985543291,116524995.91327,211811888.10498,0.0079253835017247,-6.1687909816275e-05,0.0001,0.0078327935735057,0.030118169193424,116524995.91735,211811888.10736,116524995.91114,211811888.10263,42,2,0.10312417534203,4.070455389387e-06
1.5619239378308,116123943.74114,210976834.88423,0.0080194021630512,-6.1757408802546e-05,0.0001,0.0079253835017247,0.030216996803514,116123943.7452,210976834.8866,116123943.73903,210976834.8819,42,2,0.1031351801895,4.0703094415158e-06
1.5699433399939,115722731.84973,210142103.49512,0.0081148768085438,-6.1826929807671e-05,0.0001,0.0080194021630512,0.030315820265061,115722731.85377,210142103.49748,115722731.84763,210142103.49281,42,2,0.10314619074949,4.0701634474051e-06
1.5780582168024,115321360.03662,209307694.87465,0.0082118353092364,-6.1896472859101e-05,0.0001,0.0081148768085438,0.030414639548479,115321360.04063,209307694.87698,115321360.03453,209307694.87235,42,2,0.10315720702968,4.0700174069971e-06
1.5862700521117,114919828.0996,208473609.9651,0.0083103061725441,-6.1966037984247e-05,0.0001,0.0082118353092364,0.030513454623859,114919828.10359,208473609.96742,114919828.09752,208473609.96282,42,2,0.10316822903776,4.0698713202343e-06
1.5945803582842,114518135.83674,207639849.71419,0.008410318559163,-6.2035625210477e-05,0.0001,0.0083103061725441,0.030612265460969,114518135.8407,207639849.71649,114518135.83467,207639849.71193,42,2,0.1031792567814,4.0697251870592e-06
1.6029906768434,114116283.04633,206806415.07505,0.0085119023004813,-6.2105234565115e-05,0.0001,0.008410318559163,0.030711072029251,114116283.05027,206806415.07734,114116283.04428,206806415.07281,42,2,0.10319029026826,4.0695790074144e-06
1.6115025791438,113714269.52696,205973307.00632,0.0086150879165247,-6.2174866075438e-05,0.0001,0.0085119023004813,0.030809874297811,113714269.53088,205973307.00859,113714269.52492,205973307.00409,42,2,0.10320132950598,4.0694327812427e-06
1.6201176670604,113312095.07749,205140526.47218,0.008719906634444,-6.2244519768676e-05,0.0001,0.0086150879165247,0.030908672235417,113312095.08139,205140526.47444,113312095.07546,205140526.46997,42,2,0.10321237450221,4.0692865084869e-06
1.6288375736948,112909759.49709,204308074.44241,0.0088263904075732,-6.2314195672007e-05,0.0001,0.008719906634444,0.031007465810493,112909759.50097,204308074.44466,112909759.49508,204308074.44022,42,2,0.10322342526458,4.0691401890899e-06
1.6376639641024,112507262.58526,203475951.89247,0.0089345719350729,-6.2383893812556e-05,0.0001,0.0088263904075732,0.031106254991118,112507262.58911,203475951.8947,112507262.58325,203475951.8903,42,2,0.10323448180071,4.0689938229948e-06
1.6465985360375,112104604.1418,202644159.8035,0.009044484682179,-6.2453614217392e-05,0.0001,0.0089345719350729,0.031205039745015,112104604.14564,202644159.80572,112104604.13981,202644159.80135,42,2,0.10324554411818,4.0688474101446e-06
1.6556430207196,111701783.96691,201812699.16244,0.0091561629010825,-6.2523356913528e-05,0.0001,0.009044484682179,0.031303820039548,111701783.97072,201812699.16464,111701783.96493,201812699.16031,42,2,0.1032566122246,4.0687009504827e-06
1.6647991836207,111298801.8611,200981570.96205,0.0092696416524521,-6.2593121927915e-05,0.0001,0.0091561629010825,0.031402595841718,111298801.86489,200981570.96424,111298801.85914,200981570.95993,42,2,0.10326768612752,4.0685544439525e-06
1.6740688252732,110895657.62532,200150776.20098,0.0093849568276385,-6.2662909287441e-05,0.0001,0.0092696416524521,0.031501367118156,110895657.62909,200150776.20315,110895657.62337,200150776.19888,42,2,0.10327876583453,4.0684078904975e-06
1.6834537821008,110492351.06089,199320315.88382,0.0095021451715651,-6.2732719018931e-05,0.0001,0.0093849568276385,0.03160013383512,110492351.06464,199320315.88597,110492351.05895,199320315.88173,42,2,0.10328985135314,4.0682612900614e-06
1.6929559272724,110088881.96957,198490191.02117,0.0096212443063462,-6.2802551149139e-05,0.0001,0.0095021451715651,0.031698895958484,110088881.97329,198490191.02332,110088881.96764,198490191.01911,42,2,0.1033009426909,4.068114642588e-06
1.7025771715787,109685250.15353,197660402.62973,0.0097422927556471,-6.2872405704751e-05,0.0001,0.0096212443063462,0.031797653453737,109685250.15723,197660402.63186,109685250.15161,197660402.62768,42,2,0.10331203985531,4.0679679480212e-06
1.7123194643344,109281455.41543,196830951.73229,0.0098653299698158,-6.2942282712379e-05,0.0001,0.0097422927556471,0.031896406285977,109281455.41911,196830951.7344,109281455.41352,196830951.73026,42,2,0.10332314285385,4.0678212063051e-06
1.7221847943042,108877497.55839,196001839.35787,0.0099903963518216,-6.3012182198558e-05,0.0001,0.0098653299698158,0.031995154419903,108877497.56205,196001839.35997,108877497.55649,196001839.35585,42,2,0.103334251694,4.0676744173842e-06
1.732175190656,108473376.38603,195173066.54173,0.010117533284012,-6.3082104189745e-05,0.0001,0.0099903963518216,0.032093897819808,108473376.38967,195173066.54381,108473376.38415,195173066.53973,42,2,0.10334536638322,4.0675275812027e-06
1.74229272394,108069091.7025,194344634.32547,0.010246783155736,-6.3152048712315e-05,0.0001,0.010117533284012,0.032192636449578,108069091.70612,194344634.32754,108069091.70063,194344634.32349,42,2,0.10335648692893,4.0673806977053e-06
1.7525395070958,107664643.31247,193516543.75708,0.010378189391854,-6.3222015792559e-05,0.0001,0.010246783155736,0.032291370272677,107664643.31607,193516543.75914,107664643.31061,193516543.75512,42,2,0.10336761333853,4.0672337668368e-06
1.7629176964876,107260031.02118,192688795.89102,0.010511796482167,-6.3292005456678e-05,0.0001,0.010378189391854,0.032390099252151,107260031.02476,192688795.89306,107260031.01933,192688795.88907,42,2,0.10337874561943,4.0670867885421e-06
1.7734294929698,106855254.63445,191861391.78825,0.010647650011809,-6.3362017730783e-05,0.0001,0.010511796482167,0.032488823350613,106855254.63801,191861391.79027,106855254.63261,191861391.78632,42,2,0.10338988377898,4.0669397627665e-06
1.7840771429816,106450313.9587,191034332.51637,0.010785796692614,-6.3432052640891e-05,0.0001,0.010647650011809,0.03258754253024,106450313.96224,191034332.51838,106450313.95688,191034332.51445,42,2,0.10340102782451,4.0667926894553e-06
1.7948629396742,106045208.80099,190207619.14962,0.01092628439553,-6.3502110212922e-05,0.0001,0.010785796692614,0.032686256752765,106045208.8045,190207619.15161,106045208.79918,190207619.14772,42,2,0.10341217776335,4.066645568554e-06
1.8057892240697,105639938.96901,189381252.769,0.011069162184077,-6.3572190472695e-05,0.0001,0.01092628439553,0.032784965979472,105639938.9725,189381252.77098,105639938.96721,189381252.76712,42,2,0.10342333360279,4.0664984000085e-06
1.8168583862538,105234504.27114,188555234.46232,0.011214480348922,-6.3642293445923e-05,0.0001,0.011069162184077,0.032883670171187,105234504.27461,188555234.46428,105234504.26935,188555234.46045,42,2,0.10343449535008,4.0663511837647e-06
1.8280728666027,104828904.51644,187729565.32428,0.011362290443593,-6.3712419158213e-05,0.0001,0.011214480348922,0.03298236928827,104828904.51989,187729565.32623,104828904.51467,187729565.32243,42,2,0.10344566301246,4.0662039197689e-06
1.8394351570463,104423139.51472,186904246.45654,0.011512645321378,-6.3782567635061e-05,0.0001,0.011362290443593,0.03308106329061,104423139.51815,186904246.45848,104423139.51296,186904246.45471,42,2,0.10345683659714,4.0660566079675e-06
1.8509478023677,104017209.07652,186079278.96782,0.011665599173461,-6.3852738901846e-05,0.0001,0.011512645321378,0.033179752137617,104017209.07993,186079278.96974,104017209.07476,186079278.966,42,2,0.10346801611128,4.0659092483072e-06
1.8626134015412,103611113.01315,185254663.97394,0.011821207568331,-6.3922932983829e-05,0.0001,0.011665599173461,0.033278435788211,103611113.01654,185254663.97585,103611113.01141,185254663.97214,42,2,0.10347920156203,4.0657618407351e-06
1.8744346091095,103204851.13675,184430402.59795,0.01197952749252,-6.399314990615e-05,0.0001,0.011821207568331,0.03337711420082,103204851.14012,184430402.59984,103204851.13501,184430402.59616,42,2,0.10349039295651,4.0656143851982e-06
1.886414136602,102798423.26025,183606495.97014,0.01214061739271,-6.406338969382e-05,0.0001,0.01197952749252,0.033475787333366,102798423.2636,183606495.97202,102798423.25853,183606495.96837,42,2,0.10350159030179,4.0654668816441e-06
1.8985547539947,102391829.19747,182782945.22819,0.012304537219278,-6.413365237172e-05,0.0001,0.01214061739271,0.033574455143261,102391829.2008,182782945.23006,102391829.19576,182782945.22644,42,2,0.10351279360491,4.0653193300205e-06
1.910859291214,101985068.7631,181959751.51723,0.01247134847132,-6.4203937964597e-05,0.0001,0.012304537219278,0.033673117587397,101985068.76641,181959751.51909,101985068.7614,181959751.5155,42,2,0.10352400287288,4.0651717302754e-06
1.9233306396853,101578141.77276,181136915.98991,0.012641114243207,-6.4274246497058e-05,0.0001,0.01247134847132,0.033771774622138,101578141.77604,181136915.99175,101578141.77107,181136915.98819,42,2,0.10353521811267,4.0650240823573e-06
1.9359717539285,101171048.04299,180314439.80651,0.012813899272754,-6.4344577993568e-05,0.0001,0.012641114243207,0.033870426203311,101171048.04626,180314439.80833,101171048.04132,180314439.8048,42,2,0.10354643933122,4.0648763862146e-06
1.9487856532013,100763787.39135,179492324.13499,0.012989769991038,-6.4414932478442e-05,0.0001,0.012813899272754,0.033969072286197,100763787.39459,179492324.1368,100763787.38968,179492324.1333,42,2,0.10355766653542,4.0647286417964e-06
1.9617754231923,100356359.63636,178670570.15114,0.013168794573943,-6.4485309975844e-05,0.0001,0.012989769991038,0.034067712825521,100356359.63959,178670570.15293,100356359.63471,178670570.14946,42,2,0.10356889973212,4.0645808490518e-06
1.9749442177663,99948764.597623,177849179.03861,0.013351042995507,-6.4555710509783e-05,0.0001,0.013168794573943,0.034166347775447,99948764.600829,177849179.04039,99948764.595978,177849179.03695,42,2,0.10358013892814,4.0644330079305e-06
1.9882952607618,99541002.09579,177028151.98904,0.013536587083114,-6.4626134104102e-05,0.0001,0.013351042995507,0.034264977089563,99541002.098977,177028151.99081,99541002.094157,177028151.9874,42,2,0.10359138413023,4.0642851183825e-06
2,99188499.356936,176318942.08154,0.013732971830917,-6.4686994900991e-05,0.0001,0.011704739238234,0.034350208016864,99188499.360103,176318942.0833,99188499.355312,176318942.07991,42,2,0.10360111312356,4.064157310709e-06
