time,avg_hydro,avg_vonmises,creep_timestep,dt,lps_eff_creep_strain,max_disp_x,max_disp_y,max_hydro,max_vonmises,min_hydro,min_vonmises,num_lin,num_nonlin,porosity,volume
0.25,59754099.509833,130536809.42619,0.00010161869590678,0.123,0.0038513038808509,6.6136654557447e-06,3.5440165482881e-05,104784493.14064,203665529.75502,37564719.458669,113509828.92626,252,10,0.10005244436923,4.0291273149956e-06
0.5,109713183.89798,224107599.82994,0.0011119330453031,0.00075459511780862,0.0062306489643293,-6.3503623925527e-07,5.5866413131154e-05,141306923.68449,253975731.91536,94115479.624997,213016783.29085,41,2,0.10013850617328,4.053716108409e-06
0.75,145591491.1442,287168441.7999,0.001282026502361,0.00040586206026139,0.012210715488205,-1.0220074680451e-06,7.7230095979779e-05,166060082.10285,306923271.2123,132065547.81494,278439256.99455,43,2,0.10038779968065,4.0723166835094e-06
1,166964814.5085,319254115.37763,0.001359850284495,5.1088033579227e-05,0.021723687163582,-1.4950262141542e-06,0.00010129887148768,179637165.09779,332369471.04919,157329219.64425,306340779.84395,43,2,0.10080059286708,4.0846358563045e-06
1.25,137746176.66196,253826089.22833,0.0027499770900591,0.0011894725423505,0.029289159910262,-1.6559003496046e-06,0.00010111128527435,146773721.21765,263264099.14532,130513549.2908,245956930.70428,42,2,0.10113960467248,4.0718674995806e-06
1.5,120771982.43737,217625295.10852,0.0043984527871669,0.0015425786517855,0.033562948635197,-1.7494803181159e-06,0.00010100436060089,128044215.91235,225242981.7192,114751661.79826,212574198.01064,42,2,0.10133633156881,4.0644680686571e-06
1.75,109227964.11808,193782320.36121,0.0062598489308947,0.0011658406639701,0.036418170113161,-1.8130868487999e-06,0.00010093199241529,115432239.53992,200280003.76252,103940194.26936,190487533.45297,41,2,0.1014700463422,4.0594434054804e-06
2,100677561.65818,176533295.6323,0.0082781646946995,0.0018974670606831,0.038506109944227,-1.860142966479e-06,0.00010087836122524,106146768.72586,182260760.50241,95880977.188715,173755036.65708,41,2,0.10156905165902,4.0557257392701e-06
