time,avg_hydro,avg_vonmises,creep_timestep,disp_x,disp_y,dt,lps_eff_creep_strain,max_hydro,max_vonmises,min_hydro,min_vonmises,num_lin,num_nonlin,porosity,volume
0.01,2375244.5410346,4869655.1810356,0.88082042536799,-4.2934527223866e-07,1e-06,0.01,1.135305107243e-06,2375244.5890727,4869655.2503248,2375244.4807011,4869654.9776848,62,3,0.10000013487573,4.0011408801094e-06
0.02,4719830.3012528,9663518.1237834,0.12500561999644,-8.6373839648469e-07,2e-06,0.01,9.134945442136e-06,4719830.301363,9663518.1241094,4719830.3010645,9663518.1236879,82,4,0.10000104211943,4.0022707957302e-06
0.03,6982177.9553284,14254101.652626,0.037470970475555,-1.3126086003091e-06,3e-06,0.01,3.5822271315762e-05,6982177.9554541,14254101.652866,6982177.9551135,14254101.652441,81,4,0.10000404509181,4.0033708449736e-06
0.04,9092584.3985703,18472003.190761,0.016330839189434,-1.7888315384664e-06,4e-06,0.01,9.7056111650499e-05,9092584.3996864,18472003.192449,9092584.3977373,18472003.188978,86,4,0.10001086830544,4.004415181597e-06
0.05,10976373.052856,22141905.283654,0.0088985418005557,-2.3064113538078e-06,5e-06,0.01,0.00020943407435869,10976373.056687,22141905.291025,10976373.048808,22141905.265601,87,4,0.10002325901617,4.0053756452356e-06
0.058898541800556,12442967.46509,24911052.309143,0.0060668877807306,-2.8053098164622e-06,5.8898541800556e-06,0.0088985418005557,0.00035610798872439,12442967.469056,24911052.314289,12442967.460654,24911052.294048,88,4,0.100039421918,4.0061525658619e-06
0.064965429581286,13369664.952773,26631801.542447,0.0052364983219173,-3.1582458334503e-06,6.4965429581286e-06,0.0060668877807306,0.00047196571282309,13369664.953099,26631801.543598,13369664.952066,26631801.54193,82,4,0.10005244680544,4.0066560765697e-06
0.070201927903204,14101233.056831,27961124.547514,0.0045605723347668,-3.4751437702705e-06,7.0201927903204e-06,0.0052364983219173,0.00058678679035287,14101233.074092,27961124.577118,14101233.036967,27961124.464298,63,3,0.10006544455286,4.0070657018624e-06
0.074762500237971,14689085.399326,29008255.614961,0.0041245786694849,-3.7599427347004e-06,7.476250023797e-06,0.0045605723347668,0.00069735741327527,14689085.408941,29008255.627829,14689085.392553,29008255.606851,62,3,0.10007804848794,4.0074045043055e-06
0.078887078907455,15180689.485088,29866532.561409,0.003800833414069,-4.0246783178165e-06,7.8887078907455e-06,0.0041245786694849,0.00080587515701435,15180689.490099,29866532.566171,15180689.482635,29866532.556427,59,3,0.10009048665991,4.0076963096343e-06
0.082687912321524,15600791.292742,30585497.106414,0.0035543238111955,-4.2745159403255e-06,8.2687912321524e-06,0.003800833414069,0.0009128106421422,15600791.294217,30585497.110765,15600791.291194,30585497.102613,57,3,0.10010280314106,4.007953205504e-06
0.08624223613272,15965917.236109,31198030.889563,0.0033598061654158,-4.5131003080364e-06,8.624223613272e-06,0.0035543238111955,0.0010186001916921,15965917.237482,31198030.893321,15965917.234608,31198030.886186,57,3,0.10011504071169,4.0081833246245e-06
0.089602042298136,16287332.827856,31726555.82831,0.0032026015974661,-4.7428588034338e-06,8.9602042298136e-06,0.0033598061654158,0.0011235088436279,16287332.82889,31726555.831596,16287332.826361,31726555.8259,57,3,0.10012722467587,4.0083921938695e-06
0.092804643895602,16573141.308818,32187174.760547,0.0030730498144539,-4.9655298649835e-06,9.2804643895602e-06,0.0032026015974661,0.001227724583317,16573141.31005,32187174.763457,16573141.30728,32187174.75902,57,3,0.10013937272737,4.0085837866262e-06
0.095877693710056,16829374.070579,32591854.819389,0.0029646044046906,-5.1823969175844e-06,9.5877693710056e-06,0.0030730498144539,0.0013313825893463,16829374.071457,32591854.821311,16829374.068969,32591854.818275,59,3,0.10015149731595,4.0087610572806e-06
0.098842298114746,17060652.018606,32949746.952342,0.0028726504512952,-5.3944362594164e-06,9.8842298114746e-06,0.0029646044046906,0.0014345836036445,17060652.019422,32949746.954205,17060652.017092,32949746.95133,59,3,0.10016360749752,4.0089262672566e-06
0.10171494856604,17270599.320917,33268012.352308,0.002793837433178,-5.6024081416452e-06,1.0171494856604e-05,0.0028726504512952,0.0015374045629327,17270599.321684,33268012.354082,17270599.319484,33268012.351337,58,3,0.10017570999536,4.0090811885645e-06
0.10450878599922,17462114.552392,33552364.053024,0.0027256702319141,-5.8069163299826e-06,1.0450878599922e-05,0.002793837433178,0.0016399054964299,17462114.553133,33552364.054707,17462114.551031,33552364.052106,57,3,0.10018780988793,4.0092272371624e-06
0.10723445623113,17637554.606235,33807434.347084,0.0026662502860174,-6.008448309537e-06,1.0723445623113e-05,0.0027256702319141,0.0017421340923315,17637554.606969,33807434.348726,17637554.60494,33807434.346235,57,3,0.10019991106257,4.0093655633586e-06
0.10990070651715,17798863.226909,34037031.590576,0.0026141058429265,-6.2074032714184e-06,1.0990070651715e-05,0.0026662502860174,0.0018441288257123,17798863.227698,34037031.592262,17798863.22579,34037031.589239,56,3,0.10021201652515,4.0094971149603e-06
0.11251481236008,17947663.158298,34244324.327312,0.002568077383481,-6.4041121000882e-06,1.1251481236008e-05,0.0026141058429265,0.0019459211571522,17947663.159008,34244324.328777,17947663.157162,34244324.326368,57,3,0.10022412861691,4.0096226825249e-06
0.11508288974356,18085323.690775,34431976.24783,0.0025272382934721,-6.5988519692363e-06,1.1508288974356e-05,0.002568077383481,0.0020475371143455,18085323.691452,34431976.249211,18085323.689688,34431976.246965,57,3,0.10023624916971,4.009742932515e-06
0.11761012803703,18213011.135789,34602247.047522,0.0024908387017076,-6.7918572127129e-06,1.1761012803703e-05,0.0025272382934721,0.0021489984530824,18213011.136445,34602247.048831,18213011.13475,34602247.046712,57,3,0.10024837961955,4.0098584320625e-06
0.12010096673874,18331727.199512,34757069.093225,0.0024582649266067,-6.98332756068e-06,1.2010096673874e-05,0.0024908387017076,0.0022503235248382,18331727.200148,34757069.094468,18331727.198521,34757069.092461,57,3,0.10026052109093,4.0099696677874e-06
0.12255923166534,18442338.600627,34898106.593811,0.0024290096737511,-7.1734344768212e-06,1.2255923166534e-05,0.0024582649266067,0.0023515279355228,18442338.601247,34898106.59499,18442338.59968,34898106.593088,57,3,0.10027267446068,4.0100770603178e-06
0.1249882413391,18545600.244163,35026801.891347,0.0024026497856282,-7.3623261017549e-06,1.249882413391e-05,0.0024290096737511,0.0024526250528605,18545600.244767,35026801.892466,18545600.243259,35026801.890662,57,3,0.10028484040676,4.0101809756453e-06
0.12739089112472,18642173.576863,35144412.121805,0.002378829391387,-7.5501311572557e-06,1.2739089112472e-05,0.0024026497856282,0.0025536264022474,18642173.577447,35144412.122878,18642173.576,35144412.121154,58,3,0.10029701944623,4.0102817341169e-06
0.12976972051611,18732641.288258,35252038.571828,0.0023572469800103,-7.7369620644804e-06,1.2976972051611e-05,0.002378829391387,0.0026545419792272,18732641.288827,35252038.572848,18732641.287434,35252038.57121,58,3,0.10030921196496,4.0103796176339e-06
0.13212696749612,18817519.204354,35350650.424404,0.0023376453658103,-7.9229174599537e-06,1.3212696749612e-05,0.0023572469800103,0.0027553804987845,18817519.204909,35350650.425373,18817519.203566,35350650.423816,58,3,0.10032141824132,4.0104748754737e-06
0.13446461286193,18897265.999177,35441104.143114,0.0023198038146232,-8.108084244601e-06,1.3446461286193e-05,0.0023376453658103,0.0028561495961746,18897265.999717,35441104.144035,18897265.998423,35441104.142555,58,3,0.10033363846501,4.0105677290424e-06
0.13678441667656,18972291.191856,35524159.429741,0.0023035318038699,-8.2925392667879e-06,1.3678441667656e-05,0.0023198038146232,0.0029568559901635,18972291.192381,35524159.430618,18972291.191132,35524159.429209,58,3,0.10034587275239,4.0106583757872e-06
0.13908794848042,19042961.78335,35600492.462994,0.0022886640320105,-8.4763507156238e-06,1.3908794848042e-05,0.0023035318038699,0.0030575056168071,19042961.783862,35600492.463828,19042961.782653,35600492.462488,58,3,0.10035812115886,4.0107469924418e-06
0.14137661251244,19109607.803883,35670706.960206,0.0022750563932946,-8.6595792827817e-06,1.4137661251244e-05,0.0022886640320105,0.0031581037399243,19109607.804382,35670706.960999,19109607.80321,35670706.959724,58,3,0.10037038368913,4.0108337377386e-06
0.14365166890573,19172526.980826,35735343.481154,0.0022625827054796,-8.8422791377943e-06,1.4365166890573e-05,0.0022750563932946,0.003258655042969,19172526.981311,35735343.481909,19172526.980177,35735343.480695,58,3,0.10038266030558,4.0109187546902e-06
0.14591425161121,19231988.690731,35794887.301296,0.0022511320301299,-9.0244987518632e-06,1.4591425161121e-05,0.0022625827054796,0.0033591637059328,19231988.691204,35794887.302015,19231988.690104,35794887.300859,58,3,0.10039495093529,4.0110021725205e-06
0.14816538364134,19288237.324602,35849775.112285,0.0022406064631489,-9.2062815977239e-06,1.4816538364134e-05,0.0022511320301299,0.0034596334701119,19288237.325062,35849775.11297,19288237.323996,35849775.111869,58,3,0.10040725547587,4.0110841083085e-06
0.15040599010449,19341495.168805,35900400.754614,0.0022309193013441,-9.3876667474158e-06,1.5040599010449e-05,0.0022406064631489,0.0035600676929634,19341495.169254,35900400.755267,19341495.168221,35900400.754217,58,3,0.10041957380037,4.011164668395e-06
0.15263690940583,19391964.883733,35947120.14634,0.0022219935118896,-9.5686893853944e-06,1.5263690940583e-05,0.0022309193013441,0.0036604693948147,19391964.88417,35947120.146963,19391964.883168,35947120.145961,58,3,0.10043190576143,4.011243949593e-06
0.15485890291772,19439831.646324,35990255.540107,0.002213760447433,-9.7493812510386e-06,1.5485890291772e-05,0.0022219935118896,0.0037608412988346,19439831.64675,35990255.540701,19439831.645779,35990255.539745,58,3,0.10044425119477,4.0113220402331e-06
0.15707266336516,19485265.010148,36030099.215781,0.0022061587616909,-9.929771021927e-06,1.5707266336515e-05,0.002213760447433,0.0038611858653966,19485265.010561,36030099.216347,19485265.00962,36030099.215436,58,3,0.10045660992218,4.0113990210712e-06
0.15927882212685,19528420.526914,36066916.696373,0.0021991334896694,-1.0109884647167e-05,1.5927882212685e-05,0.0022061587616909,0.0039615053217519,19528420.527318,36066916.696913,19528420.526403,36066916.696044,58,3,0.10046898175407,4.0114749660793e-06
0.16147795561652,19569441.16547,36100949.559303,0.0021926352638359,-1.0289745638388e-05,1.6147795561652e-05,0.0021991334896694,0.0040618016877563,19569441.165864,36100949.559819,19569441.164976,36100949.558989,58,3,0.10048136649167,4.0115499431377e-06
0.16367059088035,19608458.558066,36132417.902564,0.0021866196431599,-1.0469375324685e-05,1.6367059088035e-05,0.0021926352638359,0.0041620767982629,19608458.558449,36132417.903056,19608458.557588,36132417.902264,58,3,0.10049376392884,4.0116240146422e-06
0.16585721052351,19645594.098643,36161522.515263,0.0021810465363494,-1.0648793076724e-05,1.6585721052351e-05,0.0021866196431599,0.0042623323226835,19645594.099016,36161522.515733,19645594.09818,36161522.514977,58,3,0.10050617385374,4.0116972380398e-06
0.16803825705986,19680959.913847,36188446.793906,0.0021758797040744,-1.0828016504356e-05,1.6803825705986e-05,0.0021810465363494,0.0043625697821347,19680959.914211,36188446.794355,19680959.913398,36188446.793632,58,3,0.10051859605019,4.0117696663013e-06
0.17021413676394,19714659.724088,36213358.439071,0.0021710863277335,-1.1007061631387e-05,1.7021413676393e-05,0.0021758797040744,0.0044627905645154,19714659.724443,36213358.439501,19714659.723654,36213358.43881,58,3,0.10053103029888,4.0118413483407e-06
0.17238522309167,19746789.609287,36236410.961775,0.0021666366345236,-1.1185943050568e-05,1.7238522309167e-05,0.0021710863277335,0.0045629959378065,19746789.609633,36236410.962186,19746789.608865,36236410.961524,58,3,0.10054347637838,4.0119123293885e-06
0.17455185972619,19777438.691706,36257745.024242,0.0021625035703553,-1.1364674061396e-05,1.7455185972619e-05,0.0021666366345236,0.0046631870618346,19777438.692042,36257745.024635,19777438.691297,36257745.024002,58,3,0.10055593406606,4.0119826513233e-06
0.17671436329655,19806689.746377,36277489.636187,0.0021586625135791,-1.1543266792936e-05,1.7671436329655e-05,0.0021625035703553,0.0047633649987064,19806689.746704,36277489.636563,19806689.74598,36277489.635957,58,3,0.10056840313885,4.0120523529694e-06
0.17887302581013,19834619.748122,36295763.224573,0.0021550910236624,-1.1721732313538e-05,1.7887302581013e-05,0.0021586625135791,0.004863530722087,19834619.748442,36295763.224933,19834619.747738,36295763.224353,58,3,0.10058088337394,4.0121214703624e-06
0.18102811683379,19861300.362884,36312674.592246,0.0021517686199099,-1.1900080729054e-05,1.8102811683379e-05,0.0021550910236624,0.00496368512547,19861300.363203,36312674.592586,19861300.362505,36312674.592038,57,3,0.10059337454929,4.0121900369883e-06
0.1831798854537,19886798.389958,36328323.778719,0.0021486765860844,-1.2078321270945e-05,1.831798854537e-05,0.0021517686199099,0.0050638290295661,19886798.390262,36328323.779073,19886798.389606,36328323.77851,58,3,0.10060587644422,4.0122580839983e-06
0.18532856203978,19911176.16088,36342802.834535,0.0021457977974781,-1.2256462375456e-05,1.8532856203978e-05,0.0021486765860844,0.0051639631889176,19911176.161176,36342802.834875,19911176.160539,36342802.834336,58,3,0.10061838883976,4.0123256404024e-06
0.18747435983726,19934491.899901,36356196.519111,0.0021431165673914,-1.2434511754898e-05,1.8747435983726e-05,0.0021457977974781,0.0052640882978332,19934491.900189,36356196.519437,19934491.89957,36356196.518919,58,3,0.10063091151909,4.0123927332446e-06
0.18961747640465,19956800.050324,36368582.930683,0.0021406185106187,-1.2612476461931e-05,1.8961747640465e-05,0.0021431165673914,0.0053642049957211,19956800.050604,36368582.930996,19956800.050003,36368582.930499,58,3,0.10064344426781,4.0124593877614e-06
0.19175809491527,19978151.570509,36380034.075831,0.0021382904217107,-1.2790362947616e-05,1.9175809491527e-05,0.0021406185106187,0.0054643138718919,19978151.570782,36380034.076132,19978151.570198,36380034.075655,58,3,0.10065598687421,4.0125256275247e-06
0.19389638533698,19998594.202743,36390616.385155,0.0021361201662037,-1.2968177113931e-05,1.9389638533698e-05,0.0021382904217107,0.0055644154698906,19998594.203009,36390616.385444,19998594.20244,36390616.384987,58,3,0.10066853912954,4.0125914745729e-06
0.19603250550319,20018172.717903,36400391.180823,0.002134096583239,-1.3145924361325e-05,1.9603250550319e-05,0.0021361201662037,0.0056645102914099,20018172.718163,36400391.1811,20018172.717611,36400391.18066,58,3,0.10068110082818,4.0126569495291e-06
0.19816660208642,20036929.138409,36409415.101054,0.0021322093982056,-1.3323609631855e-05,1.9816660208642e-05,0.002134096583239,0.0057645987998311,20036929.138664,36409415.10132,20036929.138125,36409415.100898,59,3,0.10069367176778,4.0127220717088e-06
0.20029881148463,20054902.941661,36417740.485977,0.00213044914423,-1.3501237448345e-05,2.0029881148463e-05,0.0021322093982056,0.0058646814234333,20054902.941909,36417740.486234,20054902.941386,36417740.485827,59,3,0.10070625174946,4.0127868592189e-06
0.20242926062886,20072131.245964,36425415.728777,0.0021288070914965,-1.3678811949986e-05,2.0242926062886e-05,0.00213044914423,0.0059647585583036,20072131.246205,36425415.729025,20072131.245695,36425415.728633,59,3,0.10071884057783,4.012851329047e-06
0.20455806772036,20088648.980653,36432485.595604,0.0021272751835152,-1.3856336924727e-05,2.0455806772036e-05,0.0021288070914965,0.0060648305709824,20088648.980902,36432485.595819,20088648.980376,36432485.59546,58,3,0.10073143806116,4.012915497144e-06
0.20668534290387,20104489.041909,36438991.517365,0.0021258459795287,-1.4033815838784e-05,2.0668534290387e-05,0.0021272751835152,0.0061648978008696,20104489.042156,36438991.517576,20104489.041639,36438991.51721,58,3,0.10074404401141,4.0129793784994e-06
0.2088111888834,20119682.435774,36444971.856038,0.0021245126024733,-1.4211251863531e-05,2.088111888834e-05,0.0021258459795287,0.0062649605624143,20119682.435995,36444971.856277,20119682.435532,36444971.855826,56,3,0.10075665824426,4.01304298721e-06
0.21093570148587,20134258.40927,36450462.14816,0.0021232686917781,-1.4388647900078e-05,2.1093570148587e-05,0.0021245126024733,0.0063650191471134,20134258.409461,36450462.148359,20134258.409039,36450462.148046,58,3,0.10076928057919,4.0131063365433e-06
0.21305897017765,20148244.571482,36455495.327127,0.0021221083605989,-1.4566006601597e-05,2.1305897017765e-05,0.0021232686917781,0.0064650738253326,20148244.571682,36455495.327309,20148244.571247,36455495.327018,59,3,0.10078191083949,4.0131694389958e-06
0.21518107853825,20161667.004121,36460101.9273,0.0021210261569215,-1.4743330393927e-05,2.1518107853825e-05,0.0021221083605989,0.0065651248479738,20161667.004323,36460101.927473,20161667.003888,36460101.927195,59,3,0.10079454885224,4.0132323063463e-06
0.21730210469517,20174550.364145,36464310.27039,0.0021200170282444,-1.492062149423e-05,2.1730210469517e-05,0.0021210261569215,0.0066651724479954,20174550.364343,36464310.27058,20174550.363926,36464310.270288,60,3,0.10080719444834,4.0132949497052e-06
0.21942212172342,20186917.978037,36468146.636611,0.0021190762894073,-1.5097881928167e-05,2.1942212172342e-05,0.0021200170282444,0.0067652168418066,20186917.97823,36468146.636796,20186917.977826,36468146.636511,60,3,0.1008198474625,4.0133573795598e-06
0.22154119801282,20198791.92892,36471635.421599,0.0021181995932394,-1.5275113545583e-05,2.2154119801282e-05,0.0021190762894073,0.0068652582305437,20198791.92911,36471635.421777,20198791.928715,36471635.421503,60,3,0.10083250773321,4.013419605816e-06
0.22365939760606,20210193.137,36474799.280499,0.0021173829038215,-1.5452318034903e-05,2.2365939760606e-05,0.0021181995932394,0.0069652968012394,20210193.137185,36474799.280671,20210193.1368,36474799.280405,60,3,0.10084517510272,4.0134816378372e-06
0.22577678050989,20221141.433955,36477659.260307,0.002116622472042,-1.5629496936319e-05,2.2577678050989e-05,0.0021173829038215,0.0070653327278959,20221141.434135,36477659.260452,20221141.433754,36477659.260217,60,3,0.100857849417,4.0135434844795e-06
0.22789340298193,20231655.631832,36480234.921488,0.0021159148132412,-1.5806651653881e-05,2.2789340298193e-05,0.002116622472042,0.0071653661724705,20231655.632007,36480234.921627,20231655.631635,36480234.921398,60,3,0.10087053052572,4.0136051541252e-06
0.23000931779517,20241753.586776,36482544.449866,0.0021152566867932,-1.5983783466603e-05,2.3000931779517e-05,0.0021159148132412,0.00726539728578,20241753.586948,36482544.450001,20241753.586585,36482544.449778,60,3,0.10088321828219,4.0136666547128e-06
0.23212457448196,20251452.258204,36484604.759539,0.0021146450773653,-1.6160893538649e-05,2.3212457448196e-05,0.0021152566867932,0.0073654262083329,20251452.258372,36484604.759668,20251452.258017,36484604.759454,60,3,0.10089591254335,4.0137279937656e-06
0.23423921955933,20260767.763629,36486431.587653,0.0021140771777602,-1.6337982928693e-05,2.3423921955933e-05,0.0021146450773653,0.007465453071095,20260767.763793,36486431.587778,20260767.763446,36486431.58757,60,3,0.10090861316965,4.0137891784175e-06
0.23635329673709,20269715.429607,36488039.581694,0.0021135503731768,-1.6515052598511e-05,2.3635329673709e-05,0.0021140771777602,0.0075654779961931,20269715.429768,36488039.581814,20269715.42943,36488039.581611,60,3,0.10092132002508,4.0138502154377e-06
0.23846684711026,20278309.839066,36489442.379924,0.0021130622267566,-1.6692103420888e-05,2.3846684711026e-05,0.0021135503731768,0.007665501097564,20278309.839223,36489442.38004,20278309.838893,36489442.379842,60,3,0.10093403297706,4.0139111112529e-06
0.24057990933702,20286564.875303,36490652.685562,0.0021126104663079,-1.6869136186875e-05,2.4057990933702e-05,0.0021130622267566,0.0077655224815522,20286564.875455,36490652.685674,20286564.875135,36490652.685483,60,3,0.10094675189641,4.0139718719683e-06
0.24269251980333,20294493.762941,36491682.335189,0.0021121929721032,-1.7046151612473e-05,2.4269251980333e-05,0.0021126104663079,0.0078655422474607,20294493.76309,36491682.335297,20294493.762777,36491682.335111,61,3,0.10095947665727,4.014032503387e-06
0.24480471277543,20302109.106066,36492542.361883,0.0021118077656497,-1.7223150344772e-05,2.4480471277543e-05,0.0021121929721032,0.0079655604880596,20302109.106212,36492542.361986,20302109.105907,36492542.361806,61,3,0.10097220713705,4.0140930110283e-06
0.24691652054108,20309422.923759,36493243.053496,0.0021114529993538,-1.7400132967603e-05,2.4691652054108e-05,0.0021118077656497,0.0080655772900545,20309422.923894,36493243.053596,20309422.923608,36493243.053419,62,3,0.10098494321637,4.0141534001442e-06
0.24902797354044,20316446.68323,36493794.006488,0.0021111269470093,-1.7577100006741e-05,2.4902797354044e-05,0.0021114529993538,0.0081655927345201,20316446.68336,36493794.006585,20316446.683083,36493794.006412,62,3,0.10099768477901,4.0142136757351e-06
0.25113910048744,20323191.330756,36494204.175637,0.002110827995015,-1.7754051934686e-05,2.5113910048744e-05,0.0021111269470093,0.0082656068973002,20323191.330883,36494204.17573,20323191.330613,36494204.175562,62,3,0.10101043171182,4.0142738425649e-06
0.25324992848246,20329667.320539,36494481.920019,0.0021105546342909,-1.7930989175074e-05,2.5324992848246e-05,0.002110827995015,0.0083656198493772,20329667.320662,36494481.92011,20329667.320401,36494481.919945,62,3,0.10102318390466,4.0143339051738e-06
0.25536048311675,20335884.641697,36494635.045479,0.0021103054528138,-1.8107912106728e-05,2.5536048311675e-05,0.0021105546342909,0.0084656316572135,20335884.641815,36494635.045567,20335884.641562,36494635.045406,62,3,0.10103594125037,4.0143938678916e-06
0.25747078856956,20341852.843481,36494670.843953,0.0021100791287279,-1.8284821067394e-05,2.5747078856956e-05,0.0021103054528138,0.0085656423830684,20341852.843589,36494670.844031,20341852.84335,36494670.843876,63,3,0.10104870364466,4.0144537348493e-06
0.25958086769829,20347581.058896,36494596.129801,0.0021098744239812,-1.8461716357177e-05,2.5958086769829e-05,0.0021100791287279,0.0086656520852898,20347581.059,36494596.129876,20347581.058769,36494596.129725,63,3,0.10106147098608,4.0145135099903e-06
0.26169074212227,20353078.026768,36494417.273485,0.0021096901784466,-1.8638598241713e-05,2.6169074212227e-05,0.0021098744239812,0.0087656608185853,20353078.026869,36494417.273558,20353078.026644,36494417.27341,63,3,0.10107424317594,4.0145731970805e-06
0.26380043230072,20358352.11247,36494140.232696,0.002109525304485,-1.8815466955078e-05,2.6380043230072e-05,0.0021096901784466,0.0088656686342728,20358352.112568,36494140.232766,20358352.11235,36494140.232622,63,3,0.10108702011825,4.0146327997184e-06
0.2659099576052,20363411.327308,36493770.581219,0.0021093787819201,-1.8992322702475e-05,2.659099576052e-05,0.002109525304485,0.0089656755805127,20363411.327403,36493770.581288,20363411.327191,36493770.581146,63,3,0.10109980171966,4.0146923213437e-06
0.26801933638712,20368263.346732,36493313.53565,0.0021092496533849,-1.9169165662708e-05,2.6801933638712e-05,0.0021093787819201,0.009065681702523,20368263.346824,36493313.535717,20368263.346618,36493313.535578,63,3,0.10111258788938,4.0147517652461e-06
0.27012858604051,20372915.527412,36492773.980159,0.0021091370200161,-1.9345995990459e-05,2.7012858604051e-05,0.0021092496533849,0.009165687042779,20372915.5275,36492773.980224,20372915.5273,36492773.980088,63,3,0.10112537853918,4.014811134573e-06
0.27223772306053,20377374.923271,36492156.489444,0.0021090400374662,-1.9522813818385e-05,2.7223772306053e-05,0.0021091370200161,0.0092656916411981,20377374.923355,36492156.489506,20377374.923162,36492156.489374,63,3,0.10113817358322,4.0148704323372e-06
0.27434676309799,20381648.300573,36491465.350007,0.0021089579122081,-1.9699619259045e-05,2.7434676309799e-05,0.0021090400374662,0.0093656955353113,20381648.300656,36491465.350069,20381648.300467,36491465.349938,63,3,0.1011509729381,4.0149296614238e-06
0.2764557210102,20385742.152085,36490704.579894,0.0021088898981116,-1.9876412406686e-05,2.764557210102e-05,0.0021089579122081,0.0094656987604227,20385742.152166,36490704.579953,20385742.151982,36490704.579825,63,3,0.10116377652274,4.0149888245964e-06
0.27856461090831,20389662.710418,36489877.946993,0.0021088352932673,-2.0053193338871e-05,2.7856461090831e-05,0.0021088898981116,0.0095657013497571,20389662.710495,36489877.94705,20389662.710317,36489877.946924,63,3,0.10117658425834,4.015047924504e-06
0.28067344620158,20393415.960566,36488988.986035,0.0021087934370408,-2.0229962117993e-05,2.8067344620158e-05,0.0021088352932673,0.0096657033345974,20393415.960641,36488988.98609,20393415.960469,36488988.985968,63,3,0.1011893960683,4.015106963686e-06
0.28278223963862,20397007.65175,36488041.014347,0.0021087637073399,-2.0406718792654e-05,2.8278223963862e-05,0.0021087934370408,0.0097657047444119,20397007.651822,36488041.014401,20397007.651655,36488041.01428,63,3,0.10120221187819,4.0151659445781e-06
0.28489100334596,20400443.308542,36487037.146498,0.0021087455180781,-2.0583463398951e-05,2.8489100334596e-05,0.0021087637073399,0.009865705606973,20400443.308612,36487037.146551,20400443.30845,36487037.146432,63,3,0.10121503161571,4.0152248695173e-06
0.28699974886404,20403728.241381,36485980.30789,0.0021087383168157,-2.0760195961642e-05,2.8699974886404e-05,0.0021087455180781,0.0099657059484673,20403728.241448,36485980.307942,20403728.24129,36485980.307825,63,3,0.10122785521058,4.0152837407469e-06
0.28910848718085,20406867.556486,36484873.247387,0.0021087415825744,-2.0936916495228e-05,2.8910848718085e-05,0.0021087383168157,0.010065705793598,20406867.55655,36484873.247437,20406867.556398,36484873.247323,63,3,0.10124068259453,4.0153425604204e-06
0.29121722876343,20409866.165224,36483718.549041,0.0021087548238004,-2.1113625004948e-05,2.9121722876343e-05,0.0021087415825744,0.010165705165679,20409866.165286,36483718.54909,20409866.165137,36483718.548977,63,3,0.10125351370123,4.0154013306065e-06
0.29332598358723,20412728.792948,36482518.642999,0.0021087775764756,-2.1290321487692e-05,2.9332598358723e-05,0.0021087548238004,0.010265704086726,20412728.793008,36482518.643047,20412728.792864,36482518.642936,63,3,0.10126634846626,4.015460053293e-06
0.2954347611637,20415459.987346,36481275.815643,0.0021088094023557,-2.1467005932838e-05,2.954347611637e-05,0.0021087775764756,0.010365702577537,20415459.987405,36481275.815689,20415459.987263,36481275.81558,63,3,0.10127918682702,4.0155187303901e-06
0.29754357056606,20418064.126372,36479992.219002,0.0021088498873376,-2.1643678323023e-05,2.9754357056606e-05,0.0021088094023557,0.010465700657769,20418064.126429,36479992.219047,20418064.126292,36479992.21894,63,3,0.10129202872272,4.0155773637344e-06
0.2996524204534,20420545.425694,36478669.879532,0.0021088986399339,-2.1820338634856e-05,2.996524204534e-05,0.0021088498873376,0.010565698346011,20420545.425749,36478669.879577,20420545.425617,36478669.879471,63,3,0.10130487409431,4.0156359550923e-06
0.30176131909333,20422907.945802,36477310.706261,0.0021089552898572,-2.1996986839559e-05,3.0176131909333e-05,0.0021088986399339,0.010665695659849,20422907.945855,36477310.706305,20422907.945726,36477310.706201,63,3,0.10131772288445,4.0156945061631e-06
0.30387027438319,20425155.598704,36475916.498379,0.0021090194866986,-2.2173622903573e-05,3.0387027438319e-05,0.0021089552898572,0.010765692615929,20425155.598756,36475916.498422,20425155.59863,36475916.498319,63,3,0.10133057503744,4.015753018582e-06
0.30597929386989,20427292.154287,36474488.952304,0.0021090908986984,-2.2350246789098e-05,3.0597929386989e-05,0.0021090194866986,0.010865689230013,20427292.154337,36474488.952346,20427292.154215,36474488.952244,63,3,0.10134343049918,4.0158114939228e-06
0.30808838476859,20429321.24635,36473029.668253,0.0021091692115995,-2.2526858454599e-05,3.0808838476859e-05,0.0021090908986984,0.010965685517038,20429321.246398,36473029.668294,20429321.246279,36473029.668194,63,3,0.10135628921716,4.0158699337011e-06
0.31019755398018,20431246.37832,36471540.156374,0.0021092541275798,-2.270345785526e-05,3.1019755398018e-05,0.0021091692115995,0.011065681491159,20431246.378368,36471540.156414,20431246.378251,36471540.156315,63,3,0.10136915114037,4.0159283393762e-06
0.31230680810776,20433070.928695,36470021.84244,0.0021093453642543,-2.2880044943411e-05,3.1230680810776e-05,0.0021092541275798,0.011165677165803,20433070.928742,36470021.84248,20433070.928627,36470021.842382,63,3,0.10138201621928,4.0159867123542e-06
0.31441615347202,20434798.156183,36468476.073176,0.0021094426537458,-2.3056619668908e-05,3.1441615347202e-05,0.0021093453642543,0.011265672553707,20434798.156228,36468476.073214,20434798.156117,36468476.073118,63,3,0.1013948844058,4.0160450539898e-06
0.31652559612576,20436431.204634,36466904.121198,0.0021095457418185,-2.3233181979485e-05,3.1652559612576e-05,0.0021094426537458,0.011365667666963,20436431.204678,36466904.121236,20436431.204568,36466904.121141,63,3,0.10140775565325,4.0161033655887e-06
0.31863514186758,20437973.107678,36465307.189648,0.0021096543870645,-2.3409731821079e-05,3.1863514186758e-05,0.0021095457418185,0.011465662517054,20437973.107722,36465307.189685,20437973.107614,36465307.189592,63,3,0.10142062991629,4.0161616484094e-06
0.32074479625465,20439426.793169,36463686.416491,0.0021097683601514,-2.3586269138118e-05,3.2074479625465e-05,0.0021096543870645,0.011565657114892,20439426.793212,36463686.416527,20439426.793106,36463686.416435,63,3,0.10143350715091,4.0162199036658e-06
0.3228545646148,20440795.087412,36462042.878529,0.0021098874431132,-2.3762793873791e-05,3.228545646148e-05,0.0021097683601514,0.011665651470847,20440795.087455,36462042.878563,20440795.087351,36462042.878474,63,3,0.10144638731437,4.0162781325284e-06
0.32496445205791,20442080.719168,36460377.595157,0.0021100114286897,-2.3939305970293e-05,3.2496445205791e-05,0.0021098874431132,0.011765645594784,20442080.719211,36460377.595191,20442080.719109,36460377.595102,63,3,0.10145927036521,4.0163363361263e-06
0.3270744634866,20443286.323503,36458691.531854,0.0021101401197103,-2.411580536904e-05,3.270744634866e-05,0.0021100114286897,0.011865639496087,20443286.323544,36458691.531887,20443286.323445,36458691.5318,63,3,0.10147215626315,4.016394515549e-06
0.32918460360631,20444414.445418,36456985.603454,0.0021102733285135,-2.429229201088e-05,3.2918460360631e-05,0.0021101401197103,0.01196563318369,20444414.445459,36456985.603486,20444414.445359,36456985.603401,63,3,0.1014850449691,4.0164526718479e-06
0.33129487693483,20445467.54334,36455260.67719,0.0021104108764103,-2.4468765836266e-05,3.3129487693483e-05,0.0021102733285135,0.0120656266661,20445467.54338,36455260.677222,20445467.543284,36455260.677138,63,3,0.10149793644511,4.0165108060379e-06
0.33340528781124,20446447.992456,36453517.575542,0.0021105525931757,-2.4645226785426e-05,3.3340528781124e-05,0.0021104108764103,0.012165619951423,20446447.992495,36453517.575573,20446447.992401,36453517.57549,63,3,0.10151083065436,4.0165689190985e-06
0.33551584040441,20447358.087856,36451757.078902,0.002110698316576,-2.4821674798511e-05,3.3551584040441e-05,0.0021105525931757,0.012265613047385,20447358.087894,36451757.078933,20447358.087801,36451757.078851,63,3,0.10152372756109,4.0166270119759e-06
0.33762653872099,20448200.04758,36449979.928058,0.0021108478919249,-2.4998109815732e-05,3.3762653872099e-05,0.002110698316576,0.012365605961352,20448200.047619,36449979.928089,20448200.047526,36449979.928008,63,3,0.10153662713059,4.0166850855836e-06
0.33973738661291,20448976.015504,36448186.826518,0.0021110011716684,-2.5174531777479e-05,3.3973738661291e-05,0.0021108478919249,0.012465598700353,20448976.01554,36448186.826547,20448976.015452,36448186.826468,63,3,0.10154952932918,4.0167431408042e-06
0.34184838778458,20449688.064106,36446378.442684,0.0021111580149943,-2.5350940624428e-05,3.4184838778458e-05,0.0021110011716684,0.012565591271096,20449688.064142,36446378.442713,20449688.064054,36446378.442635,63,3,0.10156243412417,4.01680117849e-06
0.34395954579958,20450338.197101,36444555.411891,0.0021113182874669,-2.5527336297648e-05,3.4395954579958e-05,0.0021111580149943,0.012665583679986,20450338.197136,36444555.411919,20450338.197049,36444555.411843,63,3,0.10157534148382,4.0168591994648e-06
0.34607086408704,20450928.351986,36442718.338302,0.0021114818606855,-2.5703718738674e-05,3.4607086408704e-05,0.0021113182874669,0.012765575933141,20450928.352021,36442718.338329,20450928.351937,36442718.338254,63,3,0.10158825137735,4.0169172045247e-06
0.34818234594773,20451460.40244,36440867.796694,0.0021116486119624,-2.58800878896e-05,3.4818234594773e-05,0.0021114818606855,0.012865568036405,20451460.402476,36440867.796721,20451460.402392,36440867.796646,63,3,0.10160116377485,4.0169751944389e-06
0.35029399455969,20451936.160656,36439004.334128,0.0021118184240184,-2.6056443693135e-05,3.5029399455969e-05,0.0021116486119624,0.012965559995369,20451936.160691,36439004.334155,20451936.160608,36439004.33408,63,3,0.10161407864733,4.0170331699512e-06
0.35240581298371,20452357.379551,36437128.471505,0.0021119911847026,-2.6232786092672e-05,3.5240581298371e-05,0.0021118184240184,0.013065551815378,20452357.379586,36437128.471532,20452357.379504,36437128.471459,63,3,0.10162699596662,4.0170911317805e-06
0.35451780416841,20452725.754888,36435240.705036,0.002112166786723,-2.640911503234e-05,3.5451780416841e-05,0.0021119911847026,0.013165543501544,20452725.754921,36435240.705062,20452725.754842,36435240.70499,63,3,0.10163991570542,4.0171490806219e-06
0.35662997095513,20453042.927333,36433341.507604,0.0021123451273998,-2.6585430457048e-05,3.5662997095513e-05,0.002112166786723,0.013265535058761,20453042.927366,36433341.50763,20453042.927288,36433341.507559,63,3,0.10165283783721,4.0172070171478e-06
0.35874231608253,20453310.484381,36431431.330065,0.0021125261084244,-2.6761732312527e-05,3.5874231608253e-05,0.0021123451273998,0.013365526491717,20453310.484413,36431431.33009,20453310.484336,36431431.33002,63,3,0.10166576233625,4.0172649420083e-06
0.36085484219096,20453529.962245,36429510.602441,0.0021127096356417,-2.6938020545368e-05,3.6085484219096e-05,0.0021125261084244,0.013465517804899,20453529.962277,36429510.602466,20453529.962201,36429510.602398,63,3,0.10167868917758,4.0173228558322e-06
0.3629675518266,20453702.84766,36427579.735055,0.0021128956188419,-2.7114295103046e-05,3.629675518266e-05,0.0021127096356417,0.013565509002608,20453702.847692,36427579.735079,20453702.847618,36427579.735012,63,3,0.10169161833697,4.017380759228e-06
0.36508044744544,20453830.579593,36425639.119599,0.0021130839715606,-2.7290555933948e-05,3.6508044744544e-05,0.0021128956188419,0.013665500088967,20453830.579625,36425639.119623,20453830.579551,36425639.119555,63,3,0.10170454979092,4.0174386527841e-06
0.367193531417,20453914.550912,36423689.130124,0.0021132746108963,-2.7466802987396e-05,3.67193531417e-05,0.0021130839715606,0.013765491067926,20453914.550943,36423689.130148,20453914.55087,36423689.130081,63,3,0.10171748351659,4.0174965370701e-06
0.3693068060279,20453956.109967,36421730.123979,0.002113467457337,-2.7643036213658e-05,3.693068060279e-05,0.0021132746108963,0.013865481943279,20453956.109998,36421730.124003,20453956.109927,36421730.123937,63,3,0.10173041949187,4.017554412637e-06
0.37142027348524,20453956.562128,36419762.442693,0.0021136624345876,-2.7819255563966e-05,3.7142027348524e-05,0.002113467457337,0.013965472718661,20453956.562165,36419762.442711,20453956.562087,36419762.442655,65,3,0.10174335769525,4.0176122800182e-06
0.37353393591982,20453917.171257,36417786.412793,0.0021138594694384,-2.7995460990522e-05,3.7353393591982e-05,0.0021136624345876,0.014065463397565,20453917.171293,36417786.412811,20453917.171217,36417786.412757,65,3,0.10175629810591,4.0176701397298e-06
0.37564779538926,20453839.161105,36415802.346596,0.0021140584915849,-2.817165244651e-05,3.7564779538926e-05,0.0021138594694384,0.014165453983343,20453839.16114,36415802.346613,20453839.161065,36415802.346559,65,3,0.10176924070362,4.0177279922715e-06
0.37776185388085,20453723.716689,36413810.542927,0.0021142594335144,-2.8347829886093e-05,3.7776185388085e-05,0.0021140584915849,0.014265444479213,20453723.716724,36413810.542943,20453723.716649,36413810.542892,65,3,0.10178218546874,4.0177858381269e-06
0.37987611331436,20453571.985586,36411811.287818,0.0021144622303657,-2.8523993264424e-05,3.7987611331436e-05,0.0021142594335144,0.01436543488827,20453571.985621,36411811.287834,20453571.985547,36411811.287783,65,3,0.10179513238225,4.0178436777643e-06
0.38199057554473,20453385.079195,36409804.855145,0.0021146668198101,-2.8700142537634e-05,3.8199057554473e-05,0.0021144622303657,0.014465425213485,20453385.079229,36409804.855161,20453385.079158,36409804.85511,65,3,0.10180808142567,4.0179015116371e-06
0.38410524236454,20453164.073952,36407791.507246,0.0021148731419323,-2.8876277662839e-05,3.8410524236454e-05,0.0021146668198101,0.014565415457716,20453164.073987,36407791.507262,20453164.073915,36407791.507212,65,3,0.10182103258107,4.0179593401843e-06
0.38622011550647,20452910.012487,36405771.495491,0.0021150811391212,-2.9052398598132e-05,3.8622011550647e-05,0.0021148731419323,0.01466540562371,20452910.012521,36405771.495507,20452910.012451,36405771.495457,65,3,0.10183398583107,4.0180171638309e-06
0.38833519664559,20452623.904753,36403745.060826,0.0021152907559653,-2.9228505302579e-05,3.8833519664559e-05,0.0021150811391212,0.014765395714109,20452623.904787,36403745.060841,20452623.904717,36403745.060794,65,3,0.10184694115878,4.0180749829886e-06
0.39045048740156,20452306.729104,36401712.434281,0.0021155019391546,-2.9404597736206e-05,3.9045048740156e-05,0.0021152907559653,0.014865385731456,20452306.729138,36401712.434296,20452306.729069,36401712.434249,65,3,0.10185989854785,4.0181327980562e-06
0.39256598934071,20451959.433331,36399673.837459,0.0021157146373864,-2.9580675860001e-05,3.9256598934071e-05,0.0021155019391546,0.014965375678198,20451959.433364,36399673.837473,20451959.433295,36399673.837426,65,3,0.10187285798239,4.0181906094198e-06
0.3946817039781,20451582.935677,36397629.482974,0.0021159288012774,-2.9756739635892e-05,3.946817039781e-05,0.0021157146373864,0.01506536555669,20451582.935711,36397629.482987,20451582.935642,36397629.482942,65,3,0.10188581944699,4.0182484174535e-06
0.39679763277937,20451178.125798,36395579.574897,0.0021161443832804,-2.9932789026746e-05,3.9679763277937e-05,0.0021159288012774,0.015165355369199,20451178.125832,36395579.574911,20451178.125764,36395579.574866,65,3,0.1018987829267,4.0183062225196e-06
0.39891377716265,20450745.865689,36393524.309154,0.002116361337603,-3.0108823996352e-05,3.9891377716265e-05,0.0021161443832804,0.015265345117909,20450745.865722,36393524.309167,20450745.865655,36393524.309123,65,3,0.10191174840703,4.0183640249693e-06
0.40103013850026,20450286.990603,36391463.873902,0.0021165796201337,-3.0284844509411e-05,4.0103013850026e-05,0.002116361337603,0.015365334804923,20450286.990637,36391463.873914,20450286.99057,36391463.873872,65,3,0.10192471587389,4.0184218251425e-06
0.40314671812039,20449802.30989,36389398.449904,0.0021167991883704,-3.0460850531523e-05,4.0314671812039e-05,0.0021165796201337,0.015465324432269,20449802.309923,36389398.449917,20449802.309858,36389398.449874,65,3,0.10193768531366,4.0184796233688e-06
0.40526351730876,20449292.607867,36387328.210856,0.0021170200013508,-3.0636842029171e-05,4.0526351730876e-05,0.0021167991883704,0.0155653140019,20449292.6079,36387328.21087,20449292.607834,36387328.210827,65,3,0.10195065671308,4.0185374199675e-06
0.40738053731011,20448758.644592,36385253.323727,0.0021172420195892,-3.081281896971e-05,4.0738053731011e-05,0.0021170200013508,0.015665303515699,20448758.644625,36385253.323741,20448758.64456,36385253.323698,65,3,0.10196363005932,4.0185952152479e-06
0.4094977793297,20448201.156668,36383173.949049,0.0021174652050157,-3.0988781321351e-05,4.094977793297e-05,0.0021172420195892,0.015765292975481,20448201.156702,36383173.949062,20448201.156636,36383173.94902,65,3,0.10197660533991,4.0186530095098e-06
0.41161524453472,20447620.857987,36381090.241213,0.0021176895209158,-3.1164729053145e-05,4.1161524453472e-05,0.0021174652050157,0.015865282382998,20447620.858021,36381090.241227,20447620.857957,36381090.241185,65,3,0.10198958254277,4.0187108030437e-06
0.41373293405563,20447018.440453,36379002.348746,0.0021179149318764,-3.134066213497e-05,4.1373293405563e-05,0.0021176895209158,0.015965271739937,20447018.440487,36379002.348759,20447018.440423,36379002.348718,65,3,0.10200256165617,4.0187685961312e-06
0.41585084898751,20446394.574691,36376910.414566,0.0021181414037333,-3.1516580537514e-05,4.1585084898751e-05,0.0021179149318764,0.016065261047927,20446394.574725,36376910.414579,20446394.574661,36376910.414538,65,3,0.10201554266874,4.0188263890452e-06
0.41796899039124,20445749.910715,36374814.576235,0.0021183689035197,-3.1692484232261e-05,4.1796899039124e-05,0.0021181414037333,0.016165250308542,20445749.910747,36374814.576248,20445749.910684,36374814.576207,65,3,0.10202852556946,4.01888418205e-06
0.42008735929476,20445085.078585,36372714.966182,0.002118597399418,-3.1868373191473e-05,4.2008735929476e-05,0.0021183689035197,0.016265239523297,20445085.078618,36372714.966195,20445085.078555,36372714.966155,65,3,0.10204151034762,4.0189419754022e-06
0.42220595669418,20444400.689049,36370611.711935,0.0021188268607166,-3.2044247388178e-05,4.2220595669418e-05,0.002118597399418,0.016365228693657,20444400.689082,36370611.711948,20444400.68902,36370611.711909,65,3,0.10205449699284,4.01899976935e-06
0.4243247835549,20443697.334137,36368504.936326,0.0021190572577647,-3.2220106796148e-05,4.243247835549e-05,0.0021188268607166,0.016465217821036,20443697.33417,36368504.936339,20443697.33411,36368504.9363,65,3,0.10206748549505,4.0190575641345e-06
0.42644384081266,20442975.587767,36366394.757689,0.0021192885619299,-3.239595138989e-05,4.2644384081266e-05,0.0021190572577647,0.016565206906799,20442975.5878,36366394.757702,20442975.587739,36366394.757663,65,3,0.1020804758445,4.0191153599891e-06
0.42856312937459,20442236.006302,36364281.290059,0.002119520745561,-3.2571781144626e-05,4.2856312937459e-05,0.0021192885619299,0.016665195952264,20442236.006334,36364281.290071,20442236.006273,36364281.290033,65,3,0.1020934680317,4.0191731571401e-06
0.43068265012015,20441479.129114,36362164.643336,0.0021197537819486,-3.2747596036279e-05,4.3068265012015e-05,0.002119520745561,0.016765184958704,20441479.129146,36362164.643348,20441479.129087,36362164.64331,65,3,0.10210646204749,4.0192309558069e-06
0.4328024039021,20440705.479104,36360044.923475,0.002119987645289,-3.2923396041456e-05,4.328024039021e-05,0.0021197537819486,0.016865173927349,20440705.479137,36360044.923487,20440705.479076,36360044.923449,65,3,0.10211945788293,4.0192887562024e-06
0.43492239154739,20439915.563227,36357922.232633,0.0021202223106514,-3.3099181137433e-05,4.3492239154739e-05,0.002119987645289,0.016965162859388,20439915.563259,36357922.232645,20439915.5632,36357922.232608,65,3,0.10213245552941,4.0193465585328e-06
0.43704261385804,20439109.872989,36355796.669336,0.0021204577539425,-3.3274951302142e-05,4.3704261385804e-05,0.0021202223106514,0.017065151755969,20439109.873022,36355796.669348,20439109.872961,36355796.669311,65,3,0.10214545497853,4.0194043629981e-06
0.43916307161198,20438288.884924,36353668.328618,0.0021206939518766,-3.3450706514151e-05,4.3916307161198e-05,0.0021204577539425,0.017165140618203,20438288.884956,36353668.32863,20438288.884897,36353668.328593,65,3,0.10215845622216,4.0194621697921e-06
0.44128376556386,20437453.061065,36351537.302168,0.0021209308819467,-3.3626446752654e-05,4.4128376556386e-05,0.0021206939518766,0.01726512944716,20437453.061097,36351537.30218,20437453.061039,36351537.302144,65,3,0.10217145925244,4.019519979103e-06
0.44340469644581,20436602.849398,36349403.678456,0.0021211685223927,-3.3802171997451e-05,4.4340469644581e-05,0.0021209308819467,0.01736511824388,20436602.84943,36349403.678468,20436602.849372,36349403.678433,65,3,0.1021844640617,4.019577791113e-06
0.4455258649682,20435738.684286,36347267.542873,0.0021214068521763,-3.3977882228937e-05,4.455258649682e-05,0.0021211685223927,0.017465107009363,20435738.684317,36347267.542884,20435738.68426,36347267.542849,65,3,0.10219747064255,4.0196356059988e-06
0.44764727182038,20434860.986902,36345128.977838,0.0021216458509537,-3.4153577428088e-05,4.4764727182038e-05,0.0021214068521763,0.017565095744581,20434860.986933,36345128.97785,20434860.986878,36345128.977815,65,3,0.10221047898779,4.0196934239321e-06
0.44976891767133,20433970.165636,36342988.062925,0.0021218854990506,-3.4329257576444e-05,4.4976891767133e-05,0.0021216458509537,0.01766508445047,20433970.165668,36342988.062937,20433970.165612,36342988.062901,65,3,0.10222348909044,4.019751245079e-06
0.45189080317038,20433066.616488,36340844.874971,0.002122125777444,-3.4504922656094e-05,4.5189080317038e-05,0.0021218854990506,0.017765073127936,20433066.616514,36340844.874996,20433066.61646,36340844.874947,63,3,0.10223650094376,4.0198090696007e-06
0.45401292894783,20432150.723452,36338699.488176,0.0021223666677147,-3.4680572649668e-05,4.5401292894783e-05,0.002122125777444,0.017865061777858,20432150.723478,36338699.488202,20432150.723424,36338699.488153,63,3,0.10224951454118,4.0198668976537e-06
0.45613529561554,20431222.858883,36336551.974215,0.0021226081520626,-3.4856207540317e-05,4.5613529561554e-05,0.0021223666677147,0.017965050401083,20431222.858909,36336551.974241,20431222.858856,36336551.974191,63,3,0.10226252987635,4.0199247293895e-06
0.4582579037676,20430283.383863,36334402.402322,0.0021228502132583,-3.5031827311703e-05,4.582579037676e-05,0.0021226081520626,0.018065038998432,20430283.383889,36334402.402347,20430283.383836,36334402.402298,63,3,0.1022755469431,4.0199825649553e-06
0.46038075398086,20429332.648533,36332250.839394,0.0021230928346309,-3.5207431947985e-05,4.6038075398086e-05,0.0021228502132583,0.018165027570698,20429332.648559,36332250.839419,20429332.648506,36332250.83937,63,3,0.10228856573546,4.0200404044937e-06
0.46250384681549,20428370.992459,36330097.350062,0.0021233360000479,-3.5383021433804e-05,4.6250384681549e-05,0.0021230928346309,0.018265016118652,20428370.99248,36330097.350076,20428370.992432,36330097.350042,64,3,0.10230158624764,4.020098248143e-06
0.46462718281554,20427398.744907,36327941.996806,0.0021235796939001,-3.5558595754279e-05,4.6462718281554e-05,0.0021233360000479,0.018365004643035,20427398.744928,36327941.99682,20427398.74488,36327941.996787,64,3,0.10231460847401,4.0201560960376e-06
0.46675076250944,20426416.225211,36325784.840001,0.0021238239010747,-3.5734154894982e-05,4.6675076250944e-05,0.0021235796939001,0.018464993144569,20426416.225233,36325784.840016,20426416.225185,36325784.839982,64,3,0.10232763240913,4.0202139483075e-06
0.46887458641051,20425423.743054,36323625.93801,0.0021240686069458,-3.5909698841934e-05,4.6887458641051e-05,0.0021238239010747,0.018564981623948,20425423.743076,36323625.938025,20425423.743027,36323625.937992,64,3,0.10234065804772,4.020271805079e-06
0.47099865501746,20424421.598757,36321465.347263,0.0021243137973539,-3.6085227581593e-05,4.7099865501746e-05,0.0021240686069458,0.018664970081848,20424421.598778,36321465.347278,20424421.59873,36321465.347244,64,3,0.10235368538466,4.0203296664747e-06
0.47312296881481,20423410.083573,36319303.12232,0.0021245594585919,-3.6260741100839e-05,4.7312296881481e-05,0.0021243137973539,0.018764958518922,20423410.083594,36319303.122335,20423410.083546,36319303.122301,64,3,0.10236671441498,4.0203875326132e-06
0.47524752827341,20422389.479969,36317139.315938,0.0021248055773884,-3.6436239386965e-05,4.7524752827341e-05,0.0021245594585919,0.018864946935801,20422389.479991,36317139.315952,20422389.479942,36317139.315919,64,3,0.10237974513388,4.02044540361e-06
0.47737233385079,20421360.061887,36314973.97914,0.0021250521408933,-3.6611722427664e-05,4.7737233385079e-05,0.0021248055773884,0.018964935333096,20421360.061909,36314973.979155,20421360.061859,36314973.979122,64,3,0.10239277753668,4.0205032795767e-06
0.47949738599169,20420322.095002,36312807.161278,0.0021252991366636,-3.6787190211022e-05,4.7949738599169e-05,0.0021250521408933,0.019064923711401,20420322.095023,36312807.161292,20420322.094974,36312807.161259,64,3,0.10240581161886,4.0205611606219e-06
0.48162268512835,20419275.836982,36310638.910087,0.0021255465526494,-3.6962642725502e-05,4.8162268512835e-05,0.0021252991366636,0.01916491207129,20419275.837004,36310638.910102,20419275.836954,36310638.910069,64,3,0.10241884737605,4.0206190468508e-06
0.483748231681,20418221.537729,36308469.271749,0.002125794377181,-3.7138079959937e-05,4.83748231681e-05,0.0021255465526494,0.019264900413316,20418221.53775,36308469.271764,20418221.5377,36308469.27173,64,3,0.10243188480399,4.0206769383655e-06
0.48587402605818,20417159.43961,36306298.290942,0.0021260425989564,-3.7313501903521e-05,4.8587402605818e-05,0.002125794377181,0.019364888738019,20417159.439631,36306298.290956,20417159.439583,36306298.290923,64,3,0.10244492389856,4.020734835265e-06
0.48800006865714,20416089.77769,36304126.010899,0.0021262912070272,-3.7488908545797e-05,4.8800006865714e-05,0.0021260425989564,0.01946487704592,20416089.777712,36304126.010913,20416089.777662,36304126.01088,64,3,0.10245796465578,4.0207927376455e-06
0.49012635986417,20415012.77996,36301952.473451,0.0021265401907912,-3.7664299876646e-05,4.9012635986417e-05,0.0021262912070272,0.019564865337523,20415012.779981,36301952.473465,20415012.779932,36301952.473432,64,3,0.10247100707177,4.0208506456001e-06
0.49225290005496,20413928.667541,36299777.719084,0.002126789539975,-3.783967588628e-05,4.9225290005496e-05,0.0021265401907912,0.019664853613316,20413928.667563,36299777.719098,20413928.667514,36299777.719066,64,3,0.10248405114278,4.0209085592193e-06
0.49437968959493,20412837.654898,36297601.786978,0.0021270392446278,-3.8015036565234e-05,4.9437968959493e-05,0.002126789539975,0.019764841873775,20412837.65492,36297601.786992,20412837.65487,36297601.78696,64,3,0.10249709686518,4.0209664785909e-06
0.49650672883956,20411739.950042,36295424.715059,0.0021272892951101,-3.8190381904353e-05,4.9650672883956e-05,0.0021270392446278,0.019864830119356,20411739.950064,36295424.715073,20411739.950014,36295424.715041,64,3,0.10251014423545,4.0210244038e-06
0.49863401813467,20410635.754727,36293246.540036,0.0021275396820811,-3.8365711894787e-05,4.9863401813467e-05,0.0021272892951101,0.019964818350505,20410635.754748,36293246.540051,20410635.754699,36293246.540018,64,3,0.10252319325017,4.0210823349294e-06
0.50076155781675,20409525.264633,36291067.297447,0.0021277903964911,-3.854102652798e-05,5.0076155781675e-05,0.0021275396820811,0.020064806567651,20409525.264655,36291067.297461,20409525.264604,36291067.297429,64,3,0.10253624390603,4.0211402720591e-06
0.50288934821324,20408408.66956,36288887.021697,0.0021280414295718,-3.8716325795663e-05,5.0288934821324e-05,0.0021277903964911,0.020164794771213,20408408.669582,36288887.021711,20408408.669533,36288887.021679,64,3,0.10254929619984,4.0211982152669e-06
0.50501738964281,20407286.153597,36286705.746096,0.0021282927728261,-3.8891609689847e-05,5.0501738964281e-05,0.0021280414295718,0.020264782961595,20407286.153617,36286705.74611,20407286.153569,36286705.746079,64,3,0.10256235012849,4.0212561646285e-06
0.50714568241564,20406157.895297,36284523.502897,0.0021285444180207,-3.9066878202811e-05,5.0714568241564e-05,0.0021282927728261,0.020364771139187,20406157.895317,36284523.50291,20406157.895269,36284523.502879,64,3,0.10257540568896,4.021314120217e-06
0.50927422683366,20405024.067851,36282340.323329,0.0021287963571773,-3.9242131327099e-05,5.0927422683366e-05,0.0021285444180207,0.020464759304369,20405024.067872,36282340.323342,20405024.067823,36282340.323311,64,3,0.10258846287834,4.0213720821035e-06
0.51140302319084,20403884.839241,36280156.237637,0.0021290485825634,-3.9417369055511e-05,5.1140302319084e-05,0.0021287963571773,0.02056474745751,20403884.839262,36280156.23765,20403884.839213,36280156.23762,64,3,0.10260152169381,4.0214300503571e-06
0.5135320717734,20402740.372397,36277971.275111,0.0021293010866846,-3.9592591381094e-05,5.135320717734e-05,0.0021290485825634,0.020664735598964,20402740.372419,36277971.275124,20402740.37237,36277971.275094,64,3,0.10261458213264,4.0214880250447e-06
0.51566137286009,20401590.825365,36275785.464117,0.0021295538622787,-3.9767798297137e-05,5.1566137286009e-05,0.0021293010866846,0.020764723729079,20401590.825386,36275785.46413,20401590.825336,36275785.464099,64,3,0.10262764419216,4.0215460062313e-06
0.51779092672236,20400436.351432,36273598.832127,0.0021298069023061,-3.9942989797163e-05,5.1779092672236e-05,0.0021295538622787,0.020864711848188,20400436.351453,36273598.832141,20400436.351405,36273598.83211,64,3,0.10264070786982,4.0216039939799e-06
0.51992073362467,20399277.099281,36271411.40576,0.0021300601999412,-4.0118165874925e-05,5.1992073362467e-05,0.0021298069023061,0.020964699956616,20399277.099305,36271411.405785,20399277.099254,36271411.405729,63,3,0.10265377316313,4.0216619883518e-06
0.52205079382461,20398113.213146,36269223.210782,0.0021303137485758,-4.0293326524391e-05,5.2205079382461e-05,0.0021300601999412,0.021064688054677,20398113.213171,36269223.210807,20398113.213119,36269223.210752,63,3,0.10266684006968,4.0217199894064e-06
0.52418110757319,20396944.832912,36267034.272167,0.0021305675417962,-4.046847173975e-05,5.2418110757319e-05,0.0021303137485758,0.021164676142676,20396944.832943,36267034.272178,20396944.83289,36267034.27215,65,3,0.10267990858713,4.0217779972014e-06
0.52631167511498,20395772.094266,36264844.61411,0.0021308215733899,-4.0643601515398e-05,5.2631167511498e-05,0.0021305675417962,0.021264664220908,20395772.094298,36264844.61412,20395772.094244,36264844.614094,65,3,0.10269297871323,4.0218360117926e-06
0.52844249668837,20394595.128823,36262654.260046,0.0021310758373321,-4.0818715845934e-05,5.2844249668837e-05,0.0021308215733899,0.021364652289659,20394595.128855,36262654.260055,20394595.128803,36262654.260029,65,3,0.10270605044578,4.0218940332346e-06
0.53057357252571,20393414.064255,36260463.232676,0.002131330327784,-4.099381472615e-05,5.3057357252571e-05,0.0021310758373321,0.021464640349208,20393414.064287,36260463.232685,20393414.064234,36260463.232659,65,3,0.10271912378268,4.0219520615798e-06
0.53270490285349,20392229.02439,36258271.554,0.0021315850390848,-4.1168898151034e-05,5.3270490285349e-05,0.002131330327784,0.021564628399822,20392229.024422,36258271.554009,20392229.024369,36258271.553983,65,3,0.10273219872187,4.0220100968797e-06
0.53483648789257,20391040.129346,36256079.245334,0.0021318399657462,-4.1343966115757e-05,5.3483648789257e-05,0.0021315850390848,0.021664616441764,20391040.129378,36256079.245344,20391040.129325,36256079.245318,65,3,0.10274527526136,4.0220681391838e-06
0.53696832785832,20389847.495636,36253886.327331,0.0021320951024479,-4.1519018615669e-05,5.3696832785832e-05,0.0021318399657462,0.021764604475285,20389847.495667,36253886.32734,20389847.495614,36253886.327315,65,3,0.10275835339922,4.0221261885404e-06
0.53910042296077,20388651.236273,36251692.820002,0.0021323504440318,-4.1694055646299e-05,5.3910042296077e-05,0.0021320951024479,0.021864592500631,20388651.236305,36251692.820011,20388651.236252,36251692.819986,65,3,0.10277143313361,4.0221842449962e-06
0.5412327734048,20387451.460884,36249498.742744,0.0021326059854967,-4.1869077203341e-05,5.412327734048e-05,0.0021323504440318,0.021964580518039,20387451.460916,36249498.742752,20387451.460863,36249498.742728,65,3,0.10278451446272,4.0222423085969e-06
0.5433653793903,20386248.275801,36247304.114349,0.0021328617219931,-4.2044083282658e-05,5.433653793903e-05,0.0021326059854967,0.022064568527739,20386248.275832,36247304.114358,20386248.275779,36247304.114333,65,3,0.1027975973848,4.0223003793864e-06
0.54549824111229,20385041.78417,36245108.95303,0.002133117648821,-4.221907388027e-05,5.4549824111229e-05,0.0021328617219931,0.022164556529956,20385041.784202,36245108.953039,20385041.784149,36245108.953014,65,3,0.10281068189816,4.0223584574077e-06
0.54763135876111,20383832.08604,36242913.276438,0.0021333737614216,-4.2394048992353e-05,5.4763135876111e-05,0.002133117648821,0.022264544524904,20383832.086072,36242913.276447,20383832.086018,36242913.276423,65,3,0.10282376800118,4.0224165427023e-06
0.54976473252253,20382619.278461,36240717.10168,0.0021336300553749,-4.2569008615235e-05,5.4976473252253e-05,0.0021333737614216,0.022364532512796,20382619.278493,36240717.101689,20382619.278439,36240717.101664,65,3,0.10283685569226,4.0224746353106e-06
0.55189836257791,20381403.455571,36238520.445337,0.0021338865263957,-4.2743952745391e-05,5.5189836257791e-05,0.0021336300553749,0.022464520493833,20381403.455602,36238520.445346,20381403.455548,36238520.445321,65,3,0.10284994496989,4.0225327352718e-06
0.5540322491043,20380184.708683,36236323.323476,0.0021341431703284,-4.2918881379435e-05,5.540322491043e-05,0.0021338865263957,0.022564508468213,20380184.708714,36236323.323486,20380184.708661,36236323.323461,65,3,0.10286303583258,4.0225908426241e-06
0.55616639227463,20378963.126373,36234125.751676,0.0021343999831443,-4.3093794514123e-05,5.5616639227463e-05,0.0021341431703284,0.022664496436128,20378963.126405,36234125.751685,20378963.126351,36234125.751661,65,3,0.10287612827891,4.0226489574043e-06
0.55830079225778,20377738.794556,36231927.745033,0.0021346569609352,-4.3268692146342e-05,5.5830079225778e-05,0.0021343999831443,0.022764484397763,20377738.794587,36231927.745044,20377738.794532,36231927.745018,65,3,0.10288922230748,4.0227070796484e-06
0.56043544921871,20376511.796575,36229729.318183,0.0021349140999128,-4.344357427311e-05,5.6043544921871e-05,0.0021346569609352,0.022864472353297,20376511.796607,36229729.318193,20376511.796551,36229729.318169,65,3,0.10290231791695,4.0227652093912e-06
0.56257036331862,20375282.213276,36227530.485309,0.0021351713964039,-4.361844089157e-05,5.6257036331862e-05,0.0021349140999128,0.022964460302906,20375282.213308,36227530.48532,20375282.213251,36227530.485294,65,3,0.10291541510604,4.0228233466667e-06
0.56470553471503,20374050.123071,36225331.260164,0.0021354288468443,-4.3793291998991e-05,5.6470553471503e-05,0.0021351713964039,0.023064448246759,20374050.123102,36225331.260175,20374050.123046,36225331.260149,65,3,0.10292851387349,4.0228814915076e-06
0.56684096356187,20372815.602028,36223131.656077,0.0021356864477806,-4.3968127592757e-05,5.6684096356187e-05,0.0021354288468443,0.023164436185019,20372815.602062,36223131.656088,20372815.602004,36223131.656063,65,3,0.10294161421808,4.0229396439459e-06
0.56897665000965,20371578.723932,36220931.685972,0.0021359441958614,-4.4142947670368e-05,5.6897665000965e-05,0.0021356864477806,0.023264424117846,20371578.723965,36220931.685983,20371578.723908,36220931.685957,65,3,0.10295471613866,4.0229978040126e-06
0.57111259420551,20370339.560353,36218731.362376,0.0021362020878373,-4.4317752229439e-05,5.7111259420551e-05,0.0021359441958614,0.023364412045393,20370339.560386,36218731.362387,20370339.560328,36218731.362362,65,3,0.10296781963408,4.0230559717378e-06
0.57324879629335,20369098.18072,36216530.697432,0.002136460120559,-4.449254126769e-05,5.7324879629335e-05,0.0021362020878373,0.023464399967811,20369098.180753,36216530.697444,20369098.180696,36216530.697418,65,3,0.10298092470325,4.0231141471508e-06
0.57538525641391,20367854.652373,36214329.702916,0.0021367182909694,-4.4667314782947e-05,5.7538525641391e-05,0.002136460120559,0.023564387885244,20367854.652406,36214329.702927,20367854.652348,36214329.702903,65,3,0.10299403134512,4.02317233028e-06
0.57752197470488,20366609.04064,36212128.390241,0.0021369765961059,-4.4842072773141e-05,5.7752197470488e-05,0.0021367182909694,0.023664375797833,20366609.040672,36212128.390253,20366609.040615,36212128.390228,65,3,0.10300713955867,4.023230521153e-06
0.57965895130099,20365361.408883,36209926.770476,0.0021372350330946,-4.50168152363e-05,5.7965895130099e-05,0.0021369765961059,0.023764363705714,20365361.408916,36209926.770488,20365361.408857,36209926.770463,65,3,0.1030202493429,4.0232887197966e-06
0.58179618633408,20364111.818571,36207724.85435,0.0021374935991484,-4.5191542170548e-05,5.8179618633408e-05,0.0021372350330946,0.02386435160902,20364111.818604,36207724.854361,20364111.818547,36207724.854337,65,3,0.10303336069687,4.0233469262368e-06
0.58393367993323,20362860.329323,36205522.652265,0.0021377522915641,-4.5366253574105e-05,5.8393367993323e-05,0.0021374935991484,0.023964339507879,20362860.329356,36205522.652277,20362860.329298,36205522.652252,65,3,0.10304647361965,4.0234051404991e-06
0.58607143222479,20361606.998977,36203320.174308,0.002138011107721,-4.5540949445278e-05,5.8607143222479e-05,0.0021377522915641,0.024064327402415,20361606.99901,36203320.174319,20361606.99895,36203320.174295,65,3,0.10305958811035,4.0234633626078e-06
0.58820944333251,20360351.883631,36201117.430259,0.0021382700450761,-4.5715629782465e-05,5.8820944333251e-05,0.002138011107721,0.024164315292748,20360351.883664,36201117.430271,20360351.883606,36201117.430246,65,3,0.10307270416812,4.023521592587e-06
0.59034771337759,20359095.037703,36198914.429602,0.0021385291011639,-4.5890294584149e-05,5.9034771337759e-05,0.0021382700450761,0.024264303178997,20359095.037736,36198914.429614,20359095.037678,36198914.429588,65,3,0.10308582179213,4.0235798304599e-06
0.59248624247875,20357836.513979,36196711.181528,0.0021387882735932,-4.6064943848896e-05,5.9248624247875e-05,0.0021385291011639,0.024364291061274,20357836.514012,36196711.18154,20357836.513954,36196711.181516,65,3,0.10309894098158,4.0236380762489e-06
0.59462503075235,20356576.363664,36194507.694955,0.0021390475600445,-4.623957757535e-05,5.9462503075235e-05,0.0021387882735932,0.02446427893969,20356576.363697,36194507.694967,20356576.363638,36194507.694942,65,3,0.1031120617357,4.0236963299761e-06
0.59676407831239,20355314.636424,36192303.978526,0.0021393069582693,-4.6414195762236e-05,5.9676407831239e-05,0.0021390475600445,0.02456426681435,20355314.636457,36192303.978538,20355314.636398,36192303.978514,65,3,0.10312518405373,4.0237545916626e-06
0.59890338527066,20354051.38044,36190100.040624,0.0021395664660854,-4.6588798408353e-05,5.9890338527066e-05,0.0021393069582693,0.024664254685359,20354051.380474,36190100.040635,20354051.380414,36190100.040611,65,3,0.10313830793497,4.0238128613292e-06
0.60104295173675,20352786.642443,36187895.889376,0.0021398260813769,-4.6763385512574e-05,6.0104295173675e-05,0.0021395664660854,0.024764242552817,20352786.642476,36187895.889388,20352786.642418,36187895.889364,65,3,0.10315143337873,4.0238711389961e-06
0.60318277781812,20351520.467767,36185691.532664,0.0021400858020924,-4.6937957073844e-05,6.0318277781812e-05,0.0021398260813769,0.024864230416821,20351520.4678,36185691.532675,20351520.467742,36185691.532652,65,3,0.10316456038432,4.0239294246827e-06
0.60532286362022,20350252.900387,36183486.97813,0.0021403456262413,-4.7112513091176e-05,6.0532286362022e-05,0.0021400858020924,0.024964218277466,20350252.900419,36183486.978142,20350252.900361,36183486.978118,65,3,0.10317768895112,4.0239877184081e-06
0.60746320924646,20348983.982952,36181282.233188,0.0021406055518931,-4.7287053563651e-05,6.0746320924646e-05,0.0021403456262413,0.025064206134843,20348983.982986,36181282.233199,20348983.982926,36181282.233176,65,3,0.10319081907849,4.0240460201907e-06
0.60960381479835,20347713.756841,36179077.305023,0.0021408655771759,-4.7461578490415e-05,6.0960381479835e-05,0.0021406055518931,0.025164193989041,20347713.756873,36179077.305035,20347713.756814,36179077.305011,65,3,0.10320395076585,4.0241043300485e-06
0.61174468037553,20346442.262188,36176872.200604,0.0021411257002737,-4.7636087870675e-05,6.1174468037553e-05,0.0021408655771759,0.025264181840147,20346442.262221,36176872.200615,20346442.262161,36176872.200592,65,3,0.10321708401261,4.0241626479989e-06
0.6138858060758,20345169.53792,36174666.92669,0.0021413859194255,-4.7810581703703e-05,6.138858060758e-05,0.0021411257002737,0.025364169688243,20345169.537954,36174666.926702,20345169.537894,36174666.926678,65,3,0.10323021881822,4.024220974059e-06
0.61602719199523,20343895.621805,36172461.489834,0.0021416462329239,-4.7985059988827e-05,6.1602719199523e-05,0.0021413859194255,0.02546415753341,20343895.621838,36172461.489846,20343895.621778,36172461.489823,65,3,0.10324335518216,4.0242793082452e-06
0.61816883822815,20342620.550472,36170255.896393,0.0021419066391112,-4.8159522725434e-05,6.1816883822815e-05,0.0021416462329239,0.025564145375729,20342620.550505,36170255.896405,20342620.550446,36170255.896381,65,3,0.10325649310389,4.0243376505735e-06
0.62031074486726,20341344.35945,36168050.152532,0.0021421671363808,-4.8333969912969e-05,6.2031074486726e-05,0.0021419066391112,0.025664133215273,20341344.359483,36168050.152543,20341344.359424,36168050.15252,65,3,0.10326963258294,4.0243960010597e-06
0.62245291200364,20340067.083206,36165844.264227,0.0021424277231749,-4.8508401550927e-05,6.2245291200364e-05,0.0021421671363808,0.025764121052118,20340067.08324,36165844.264238,20340067.083179,36165844.264216,65,3,0.10328277361882,4.0244543597187e-06
0.62459533972682,20338788.755173,36163638.237274,0.0021426883979815,-4.868281763886e-05,6.2459533972682e-05,0.0021424277231749,0.025864108886336,20338788.755206,36163638.237286,20338788.755146,36163638.237263,65,3,0.10329591621108,4.0245127265655e-06
0.6267380281248,20337509.40778,36161432.077295,0.0021429491593348,-4.8857218176367e-05,6.267380281248e-05,0.0021426883979815,0.025964096717995,20337509.407814,36161432.077307,20337509.407754,36161432.077284,65,3,0.10330906035927,4.0245711016143e-06
0.62888097728413,20336229.072483,36159225.789746,0.0021432100058127,-4.90316031631e-05,6.2888097728413e-05,0.0021429491593348,0.026064084547163,20336229.072517,36159225.789758,20336229.072455,36159225.789735,65,3,0.10332220606299,4.0246294848792e-06
0.63102418728995,20334947.779795,36157019.379911,0.0021434709360361,-4.9205972598756e-05,6.3102418728995e-05,0.0021432100058127,0.026164072373906,20334947.77983,36157019.379922,20334947.779768,36157019.379899,65,3,0.10333535332181,4.0246878763736e-06
0.63316765822598,20333665.559316,36154812.852917,0.0021437319486681,-4.9380326483081e-05,6.3316765822598e-05,0.0021434709360361,0.026264060198286,20333665.559351,36154812.852929,20333665.559289,36154812.852906,65,3,0.10334850213536,4.0247462761109e-06
0.63531139017465,20332382.439753,36152606.213741,0.0021439930424108,-4.9554664815866e-05,6.3531139017465e-05,0.0021437319486681,0.026364048020367,20332382.439787,36152606.213752,20332382.439726,36152606.213729,65,3,0.10336165250326,4.0248046841039e-06
0.63745538321706,20331098.448958,36150399.467203,0.0021442542160061,-4.9728987596944e-05,6.3745538321706e-05,0.0021439930424108,0.026464035840206,20331098.448992,36150399.467214,20331098.448931,36150399.467191,65,3,0.10337480442514,4.024863100365e-06
0.63959963743307,20329813.613939,36148192.617985,0.0021445154682334,-4.9903294826193e-05,6.3959963743307e-05,0.0021442542160061,0.026564023657863,20329813.613973,36148192.617997,20329813.613912,36148192.617974,65,3,0.10338795790068,4.0249215249065e-06
0.6417441529013,20328527.960901,36145985.670622,0.0021447767979095,-5.007758650353e-05,6.417441529013e-05,0.0021445154682334,0.026664011473393,20328527.960936,36145985.670634,20328527.960875,36145985.670611,65,3,0.10340111292954,4.0249799577403e-06
0.64388892969921,20327241.515262,36143778.629513,0.0021450382038862,-5.0251862628913e-05,6.4388892969921e-05,0.0021447767979095,0.026763999286851,20327241.515295,36143778.629524,20327241.515235,36143778.629502,65,3,0.1034142695114,4.0250383988777e-06
0.6460339679031,20325954.301671,36141571.498927,0.0021452996850502,-5.042612320234e-05,6.460339679031e-05,0.0021450382038862,0.02686398709829,20325954.301705,36141571.498938,20325954.301644,36141571.498916,65,3,0.10342742764597,4.0250968483302e-06
0.64817926758815,20324666.344046,36139364.283002,0.002145561240322,-5.0600368223845e-05,6.4817926758815e-05,0.0021452996850502,0.02696397490776,20324666.344079,36139364.283013,20324666.34402,36139364.282991,65,3,0.10344058733295,4.0251553061085e-06
0.65032482882847,20323377.665581,36137156.985754,0.0021458228686532,-5.0774597693498e-05,6.5032482882847e-05,0.002145561240322,0.027063962715312,20323377.665616,36137156.985765,20323377.665554,36137156.985743,65,3,0.10345374857207,4.0252137722234e-06
0.65247065169712,20322088.28878,36134949.611074,0.0021460845690292,-5.0948811611406e-05,6.5247065169712e-05,0.0021458228686532,0.027163950520994,20322088.288814,36134949.611086,20322088.288752,36134949.611063,65,3,0.10346691136307,4.0252722466852e-06
0.65461673626615,20320798.235462,36132742.162742,0.0021463463404638,-5.1123009977711e-05,6.5461673626615e-05,0.0021460845690292,0.027263938324852,20320798.235496,36132742.162753,20320798.235435,36132742.16273,65,3,0.1034800757057,4.0253307295039e-06
0.65676308260661,20319507.526803,36130534.644417,0.0021466081820026,-5.1297192792586e-05,6.5676308260661e-05,0.0021463463404638,0.027363926126932,20319507.526836,36130534.644428,20319507.526776,36130534.644405,65,3,0.10349324159972,4.0253892206895e-06
0.65890969078862,20318216.183333,36128327.059653,0.0021468700927183,-5.1471360056237e-05,6.5890969078862e-05,0.0021466081820026,0.027463913927278,20318216.183367,36128327.059665,20318216.183307,36128327.059643,65,3,0.1035064090449,4.0254477202514e-06
0.66105656088134,20316924.224973,36126119.411897,0.0021471320717121,-5.1645511768903e-05,6.6105656088134e-05,0.0021468700927183,0.027563901725932,20316924.225007,36126119.411909,20316924.224947,36126119.411885,65,3,0.10351957804101,4.025506228199e-06
0.66320369295305,20315631.671041,36123911.704488,0.0021473941181125,-5.1819647930852e-05,6.6320369295305e-05,0.0021471320717121,0.027663889522937,20315631.671075,36123911.704499,20315631.671015,36123911.704476,65,3,0.10353274858787,4.0255647445414e-06
0.66535108707116,20314338.540282,36121703.940668,0.0021476562310736,-5.199376854238e-05,6.6535108707116e-05,0.0021473941181125,0.027763877318332,20314338.540315,36121703.940679,20314338.540255,36121703.940656,65,3,0.10354592068527,4.0256232692875e-06
0.66749874330223,20313044.850869,36119496.123583,0.0021479184097763,-5.2167873603816e-05,6.6749874330223e-05,0.0021476562310736,0.027863865112155,20313044.850903,36119496.123594,20313044.850842,36119496.123571,65,3,0.10355909433302,4.0256818024458e-06
0.66964666171201,20311750.620436,36117288.256281,0.0021481806534251,-5.2341963115512e-05,6.6964666171201e-05,0.0021479184097763,0.027963852904446,20311750.62047,36117288.256292,20311750.620409,36117288.256269,65,3,0.10357226953094,4.0257403440247e-06
0.67179484236544,20310455.866088,36115080.341718,0.0021484429612487,-5.2516037077849e-05,6.7179484236544e-05,0.0021481806534251,0.028063840695239,20310455.866123,36115080.341729,20310455.866061,36115080.341707,65,3,0.10358544627888,4.0257988940324e-06
0.67394328532668,20309160.604414,36112872.382765,0.0021487053324997,-5.2690095491235e-05,6.7394328532668e-05,0.0021484429612487,0.028163828484572,20309160.604449,36112872.382776,20309160.604387,36112872.382753,65,3,0.10359862457668,4.025857452477e-06
0.67609199065918,20307864.851504,36110664.382203,0.0021489677664525,-5.2864138356102e-05,6.7609199065918e-05,0.0021487053324997,0.028263816272478,20307864.851539,36110664.382214,20307864.851477,36110664.382191,65,3,0.10361180442417,4.0259160193661e-06
0.67824095842564,20306568.622967,36108456.342732,0.0021492302624033,-5.3038165672908e-05,6.7824095842564e-05,0.0021489677664525,0.028363804058991,20306568.623001,36108456.342742,20306568.622939,36108456.34272,65,3,0.10362498582123,4.0259745947075e-06
0.68039018868804,20305271.933942,36106248.266969,0.0021494928196709,-5.3212177442131e-05,6.8039018868804e-05,0.0021492302624033,0.028463791844144,20305271.933977,36106248.266979,20305271.933915,36106248.266958,65,3,0.10363816876773,4.0260331785084e-06
0.68253968150771,20303974.799112,36104040.157454,0.0021497554375928,-5.3386173664277e-05,6.8253968150771e-05,0.0021494928196709,0.028563779627967,20303974.799147,36104040.157465,20303974.799085,36104040.157443,65,3,0.10365135326353,4.0260917707761e-06
0.6846894369453,20302677.232727,36101832.016649,0.0021500181155277,-5.3560154339871e-05,6.846894369453e-05,0.0021497554375928,0.028663767410491,20302677.232762,36101832.01666,20302677.232701,36101832.016638,65,3,0.10366453930852,4.0261503715176e-06
0.68683945506083,20301379.248602,36099623.846943,0.0021502808528537,-5.3734119469461e-05,6.8683945506083e-05,0.0021500181155277,0.028763755191746,20301379.248636,36099623.846954,20301379.248576,36099623.846932,65,3,0.1036777269026,4.0262089807399e-06
0.68898973591368,20300080.860134,36097415.650654,0.0021505436489673,-5.3908069053617e-05,6.8898973591368e-05,0.0021502808528537,0.02886374297176,20300080.860168,36097415.650664,20300080.860108,36097415.650643,65,3,0.10369091604566,4.0262675984495e-06
0.69114027956265,20298782.080326,36095207.430028,0.0021508065032835,-5.4082003092927e-05,6.9114027956265e-05,0.0021505436489673,0.028963730750562,20298782.08036,36095207.430039,20298782.0803,36095207.430018,65,3,0.1037041067376,4.026326224653e-06
0.69329108606594,20297482.921785,36092999.187249,0.0021510694152347,-5.4255921588001e-05,6.9329108606593e-05,0.0021508065032835,0.029063718528179,20297482.921819,36092999.18726,20297482.921758,36092999.187239,65,3,0.10371729897835,4.0263848593569e-06
0.69544215548117,20296183.39674,36090790.924429,0.0021513323842703,-5.4429824539467e-05,6.9544215548117e-05,0.0021510694152347,0.029163706304635,20296183.396773,36090790.92444,20296183.396714,36090790.924419,65,3,0.10373049276782,4.0264435025673e-06
0.69759348786544,20294883.517057,36088582.643618,0.0021515954098577,-5.4603711947972e-05,6.9759348786544e-05,0.0021513323842703,0.029263694079958,20294883.517091,36088582.643629,20294883.517031,36088582.643607,65,3,0.10374368810594,4.0265021542904e-06
0.6997450832753,20293583.294238,36086374.346808,0.0021518584914786,-5.477758381418e-05,6.997450832753e-05,0.0021515954098577,0.029363681854172,20293583.294271,36086374.34682,20293583.294212,36086374.346798,65,3,0.10375688499264,4.026560814532e-06
0.70189694176678,20292282.739446,36084166.035928,0.0021521216286314,-5.4951440138775e-05,7.0189694176678e-05,0.0021518584914786,0.029463669627299,20292282.73948,36084166.035939,20292282.73942,36084166.035918,65,3,0.10377008342786,4.026619483298e-06
0.70404906339541,20290981.863505,36081957.712852,0.0021523848208299,-5.5125280922456e-05,7.0404906339541e-05,0.0021521216286314,0.029563657399365,20290981.863539,36081957.712862,20290981.863479,36081957.712841,65,3,0.10378328341154,4.026678160594e-06
0.70620144821624,20289680.676917,36079749.379392,0.0021526480676027,-5.5299106165938e-05,7.0620144821624e-05,0.0021523848208299,0.029663645170391,20289680.676949,36079749.379403,20289680.676891,36079749.379382,65,3,0.10379648494363,4.0267368464255e-06
0.70835409628384,20288379.189865,36077541.037312,0.0021529113684913,-5.5472915869954e-05,7.0835409628384e-05,0.0021526480676027,0.029763632940398,20288379.189899,36077541.037323,20288379.18984,36077541.037302,65,3,0.1038096880241,4.026795540798e-06
0.71050700765233,20287077.412228,36075332.688321,0.0021531747230533,-5.5646710035251e-05,7.1050700765233e-05,0.0021529113684913,0.029863620709409,20287077.412261,36075332.688331,20287077.412202,36075332.688311,65,3,0.1038228926529,4.0268542437167e-06
0.71266018237539,20285775.353587,36073124.334077,0.002153438130858,-5.5820488662591e-05,7.1266018237539e-05,0.0021531747230533,0.029963608477443,20285775.353621,36073124.334088,20285775.353561,36073124.334067,65,3,0.10383609883,4.0269129551869e-06
0.71481362050624,20284473.023236,36070915.976187,0.0021537015914881,-5.5994251752752e-05,7.1481362050624e-05,0.002153438130858,0.030063596244521,20284473.02327,36070915.976198,20284473.023211,36070915.976177,65,3,0.10384930655537,4.0269716752135e-06
0.71696732209773,20283170.43019,36068707.61621,0.0021539651045395,-5.6167999306523e-05,7.1696732209773e-05,0.0021537015914881,0.030163584010662,20283170.430224,36068707.616219,20283170.430166,36068707.6162,65,3,0.10386251582899,4.0270304038015e-06
0.71912128720227,20281867.583195,36066499.255658,0.0021542286696211,-5.6341731324711e-05,7.1912128720227e-05,0.0021539651045395,0.030263571775885,20281867.583228,36066499.255667,20281867.58317,36066499.255648,65,3,0.10387572665084,4.0270891409558e-06
0.72127551587189,20280564.490729,36064290.896,0.0021544922863517,-5.6515447808133e-05,7.2127551587189e-05,0.0021542286696211,0.030363559540207,20280564.490761,36064290.89601,20280564.490703,36064290.89599,65,3,0.10388893902091,4.0271478866809e-06
0.72343000815824,20279261.161018,36062082.538661,0.0021547559543628,-5.668914875762e-05,7.2343000815824e-05,0.0021544922863517,0.030463547303646,20279261.161051,36062082.538671,20279261.160993,36062082.538651,65,3,0.10390215293918,4.0272066409817e-06
0.72558476411261,20277957.602044,36059874.18502,0.0021550196732972,-5.6862834174015e-05,7.2558476411261e-05,0.0021547559543628,0.03056353506622,20277957.602076,36059874.185029,20277957.602018,36059874.18501,65,3,0.10391536840566,4.0272654038625e-06
0.7277397837859,20276653.821541,36057665.836418,0.0021552834428087,-5.7036504058174e-05,7.277397837859e-05,0.0021550196732972,0.030663522827945,20276653.821573,36057665.836427,20276653.821516,36057665.836408,65,3,0.10392858542035,4.0273241753278e-06
0.72989506722871,20275349.827018,36055457.494153,0.0021555472625611,-5.7210158410964e-05,7.2989506722871e-05,0.0021552834428087,0.030763510588837,20275349.82705,36055457.494163,20275349.826992,36055457.494144,65,3,0.10394180398324,4.0273829553819e-06
0.73205061449127,20274045.625757,36053249.159487,0.0021558111322295,-5.7383797233263e-05,7.3205061449127e-05,0.0021555472625611,0.030863498348911,20274045.62579,36053249.159496,20274045.625733,36053249.159477,65,3,0.10395502409435,4.0274417440292e-06
0.7342064256235,20272741.224819,36051040.833643,0.0021560750514975,-5.7557420525961e-05,7.342064256235e-05,0.0021558111322295,0.030963486108184,20272741.224851,36051040.833652,20272741.224794,36051040.833633,65,3,0.10396824575368,4.0275005412736e-06
0.736362500675,20271436.631053,36048832.517805,0.0021563390200596,-5.7731028289958e-05,7.36362500675e-05,0.0021560750514975,0.031063473866668,20271436.631083,36048832.517814,20271436.631028,36048832.517795,65,3,0.10398146896126,4.0275593471193e-06
0.73851883969506,20270131.851102,36046624.213125,0.002156603037619,-5.7904620526165e-05,7.3851883969506e-05,0.0021563390200596,0.03116346162438,20270131.851134,36046624.213134,20270131.851077,36046624.213115,65,3,0.1039946937171,4.0276181615704e-06
0.74067544273268,20268826.89141,36044415.92072,0.0021568671038884,-5.8078197235502e-05,7.4067544273268e-05,0.002156603037619,0.031263449381332,20268826.891441,36044415.920729,20268826.891385,36044415.92071,65,3,0.10400792002122,4.0276769846305e-06
0.74283230983657,20267521.758228,36042207.641674,0.0021571312185882,-5.82517584189e-05,7.4283230983657e-05,0.0021568671038884,0.031363437137538,20267521.758259,36042207.641683,20267521.758203,36042207.641664,65,3,0.10402114787366,4.0277358163037e-06
0.74498944105516,20266216.457619,36039999.377034,0.0021573953814488,-5.8425304077299e-05,7.4498944105516e-05,0.0021571312185882,0.03146342489301,20266216.457649,36039999.377043,20266216.457594,36039999.377025,65,3,0.10403437727444,4.0277946565937e-06
0.7471468364366,20264910.995462,36037791.127822,0.0021576595922088,-5.8598834211647e-05,7.471468364366e-05,0.0021573953814488,0.031563412647762,20264910.995493,36037791.127832,20264910.995437,36037791.127812,65,3,0.1040476082236,4.0278535055041e-06
0.74930449602881,20263605.377461,36035582.895026,0.0021579238506133,-5.8772348822902e-05,7.4930449602881e-05,0.0021576595922088,0.031663400401806,20263605.377491,36035582.895035,20263605.377435,36035582.895017,65,3,0.10406084072116,4.0279123630385e-06
0.75146241987943,20262299.609146,36033374.679606,0.0021581881564169,-5.8945847912031e-05,7.5146241987943e-05,0.0021579238506133,0.031763388155153,20262299.609177,36033374.679615,20262299.609122,36033374.679596,65,3,0.10407407476718,4.0279712292005e-06
0.75362060803584,20260993.695884,36031166.482491,0.0021584525093804,-5.9119331480009e-05,7.5362060803584e-05,0.0021581881564169,0.031863375907815,20260993.695914,36031166.4825,20260993.69586,36031166.482482,65,3,0.10408731036169,4.0280301039936e-06
0.75577906054522,20259687.642877,36028958.304585,0.0021587169092736,-5.9292799527818e-05,7.5577906054522e-05,0.0021584525093804,0.031963363659804,20259687.642908,36028958.304594,20259687.642853,36028958.304576,65,3,0.10410054750473,4.0280889874211e-06
0.7579377774545,20258381.455174,36026750.146762,0.0021589813558712,-5.946625205645e-05,7.579377774545e-05,0.0021587169092736,0.032063351411129,20258381.455204,36026750.146772,20258381.45515,36026750.146753,65,3,0.10411378619636,4.0281478794863e-06
0.76009675881037,20257075.137671,36024542.009873,0.0021592458489577,-5.9639689066902e-05,7.6009675881037e-05,0.0021589813558712,0.032163339161802,20257075.137701,36024542.009883,20257075.137647,36024542.009864,65,3,0.10412702643663,4.0282067801927e-06
0.76225600465933,20255768.695115,36022333.894742,0.0021595103883211,-5.981311056018e-05,7.6225600465933e-05,0.0021592458489577,0.032263326911832,20255768.695145,36022333.894752,20255768.69509,36022333.894733,65,3,0.10414026822558,4.0282656895434e-06
0.76441551504765,20254462.132114,36020125.802168,0.0021597749737588,-5.9986516537297e-05,7.6441551504765e-05,0.0021595103883211,0.03236331466123,20254462.132144,36020125.802177,20254462.13209,36020125.802159,65,3,0.10415351156328,4.0283246075415e-06
0.76657529002141,20253155.453131,36017917.73293,0.0021600396050721,-6.0159906999272e-05,7.6657529002141e-05,0.0021597749737588,0.032463302410004,20253155.453161,36017917.732939,20253155.453106,36017917.732921,65,3,0.10416675644979,4.0283835341902e-06
0.76873532962648,20251848.662501,36015709.687776,0.0021603042820698,-6.0333281947133e-05,7.6873532962648e-05,0.0021600396050721,0.032563290158165,20251848.662531,36015709.687786,20251848.662476,36015709.687767,65,3,0.10418000288515,4.0284424694926e-06
0.77089563390855,20250541.764429,36013501.667438,0.0021605690045674,-6.0506641381911e-05,7.7089563390855e-05,0.0021603042820698,0.032663277905721,20250541.764457,36013501.667447,20250541.764405,36013501.66743,65,3,0.10419325086944,4.0285014134516e-06
0.77305620291312,20249234.762986,36011293.672626,0.0021608337723833,-6.0679985304647e-05,7.7305620291312e-05,0.0021605690045674,0.032763265652682,20249234.763016,36011293.672635,20249234.762961,36011293.672617,65,3,0.10420650040273,4.0285603660702e-06
0.7752170366855,20247927.66213,36009085.704025,0.0021610985853444,-6.0853313716385e-05,7.752170366855e-05,0.0021608337723833,0.032863253399054,20247927.662158,36009085.704034,20247927.662104,36009085.704016,65,3,0.10421975148507,4.0286193273512e-06
0.77737813527084,20246620.46569,36006877.762303,0.0021613634432816,-6.1026626618177e-05,7.7737813527084e-05,0.0021610985853444,0.032963241144848,20246620.465719,36006877.762312,20246620.465665,36006877.762294,65,3,0.10423300411655,4.0286782972977e-06
0.77953949871413,20245313.177389,36004669.848107,0.0021616283460315,-6.119992401108e-05,7.7953949871413e-05,0.0021613634432816,0.03306322889007,20245313.177417,36004669.848116,20245313.177364,36004669.848099,65,3,0.10424625829722,4.0287372759122e-06
0.78170112706016,20244005.800834,36002461.962064,0.0021618932934353,-6.1373205896156e-05,7.8170112706016e-05,0.0021616283460315,0.033163216634728,20244005.800862,36002461.962072,20244005.800808,36002461.962055,65,3,0.10425951402717,4.0287962631978e-06
0.78386302035359,20242698.339522,36000254.104785,0.0021621582853399,-6.1546472274474e-05,7.8386302035359e-05,0.0021618932934353,0.03326320437883,20242698.339551,36000254.104794,20242698.339496,36000254.104776,65,3,0.10427277130646,4.0288552591569e-06
0.78602517863893,20241390.796849,35998046.276859,0.0021624233215966,-6.1719723147105e-05,7.8602517863893e-05,0.0021621582853399,0.033363192122384,20241390.796879,35998046.276867,20241390.796823,35998046.27685,65,3,0.10428603013519,4.0289142637924e-06
0.78818760196053,20240083.176102,35995838.478861,0.0021626884020613,-6.189295851513e-05,7.8818760196053e-05,0.0021624233215966,0.033463179865395,20240083.176131,35995838.478869,20240083.176077,35995838.478852,65,3,0.10429929051341,4.0289732771069e-06
0.79035029036259,20238775.48048,35993630.711344,0.0021629535265944,-6.206617837963e-05,7.9035029036259e-05,0.0021626884020613,0.033563167607871,20238775.480507,35993630.711352,20238775.480453,35993630.711335,65,3,0.10431255244123,4.0290322991029e-06
0.79251324388918,20237467.713071,35991422.974852,0.0021632186950608,-6.2239382741694e-05,7.9251324388918e-05,0.0021629535265944,0.033663155349819,20237467.7131,35991422.97486,20237467.713045,35991422.974843,65,3,0.10432581591872,4.0290913297831e-06
0.79467646258425,20236159.876883,35989215.269906,0.0021634839073297,-6.2412571602414e-05,7.9467646258425e-05,0.0021632186950608,0.033763143091246,20236159.876912,35989215.269914,20236159.876856,35989215.269896,65,3,0.10433908094596,4.0291503691499e-06
0.79683994649157,20234851.974828,35987007.597015,0.002163749163274,-6.2585744962887e-05,7.9683994649157e-05,0.0021634839073297,0.033863130832156,20234851.974857,35987007.597023,20234851.974801,35987007.597005,65,3,0.10435234752304,4.0292094172059e-06
0.79900369565485,20233544.009729,35984799.956672,0.0021640144627715,-6.2758902824215e-05,7.9900369565485e-05,0.002163749163274,0.033963118572557,20233544.009758,35984799.956681,20233544.009701,35984799.956662,65,3,0.10436561565004,4.0292684739534e-06
0.80116771011762,20232235.984332,35982592.349355,0.0021642798057029,-6.2932045187502e-05,8.0116771011762e-05,0.0021640144627715,0.034063106312453,20232235.98436,35982592.349364,20232235.984304,35982592.349345,65,3,0.10437888532707,4.029327539395e-06
0.80333198992332,20230927.901285,35980384.77553,0.0021645451919538,-6.3105172053858e-05,8.0333198992332e-05,0.0021642798057029,0.034163094051852,20230927.901314,35980384.775539,20230927.901257,35980384.77552,65,3,0.1043921565542,4.029386613533e-06
0.80549653511528,20229619.763173,35978177.235646,0.0021648106214116,-6.3278283424398e-05,8.0549653511528e-05,0.0021645451919538,0.034263081790758,20229619.763204,35978177.235655,20229619.763145,35978177.235636,65,3,0.10440542933153,4.0294456963697e-06
0.80766134573669,20228311.572493,35975969.730139,0.0021650760939694,-6.3451379300237e-05,8.0766134573669e-05,0.0021648106214116,0.034363069529177,20228311.572523,35975969.730149,20228311.572466,35975969.730129,65,3,0.10441870365916,4.0295047879075e-06
0.80982642183066,20227003.331671,35973762.259436,0.0021653416095223,-6.3624459682497e-05,8.0982642183066e-05,0.0021650760939694,0.034463057267114,20227003.331701,35973762.259445,20227003.331644,35973762.259425,65,3,0.10443197953717,4.0295638881486e-06
0.81199176344018,20225695.043058,35971554.823947,0.0021656071679688,-6.3797524572303e-05,8.1199176344018e-05,0.0021653416095223,0.034563045004573,20225695.043087,35971554.823956,20225695.04303,35971554.823937,65,3,0.10444525696567,4.0296229970954e-06
0.81415737060815,20224386.708937,35969347.424071,0.0021658727692122,-6.3970573970782e-05,8.1415737060815e-05,0.0021656071679688,0.034663032741561,20224386.708967,35969347.42408,20224386.708909,35969347.42406,65,3,0.10445853594474,4.0296821147501e-06
0.81632324337736,20223078.331516,35967140.060198,0.0021661384131562,-6.4143607879067e-05,8.1632324337736e-05,0.0021658727692122,0.034763020478081,20223078.331546,35967140.060208,20223078.331488,35967140.060187,65,3,0.1044718164745,4.0297412411148e-06
0.81848938179052,20221769.912946,35964932.732702,0.0021664040997101,-6.4316626298291e-05,8.1848938179052e-05,0.0021661384131562,0.034863008214138,20221769.912975,35964932.732712,20221769.912918,35964932.73269,65,3,0.10448509855503,4.0298003761918e-06
0.82065578589023,20220461.455304,35962725.441949,0.0021666698287852,-6.4489629229592e-05,8.2065578589023e-05,0.0021664040997101,0.034962995949737,20220461.455334,35962725.441959,20220461.455276,35962725.441937,65,3,0.10449838218645,4.0298595199832e-06
0.82282245571901,20219152.96061,35960518.188292,0.0021669356002949,-6.4662616674111e-05,8.2282245571901e-05,0.0021666698287852,0.035062983684881,20219152.960641,35960518.188303,20219152.960581,35960518.18828,65,3,0.10451166736885,4.0299186724911e-06
0.82498939131931,20217844.430824,35958310.972075,0.0021672014141571,-6.4835588632992e-05,8.2498939131931e-05,0.0021669356002949,0.035162971419576,20217844.430855,35958310.972087,20217844.430795,35958310.972063,65,3,0.10452495410233,4.0299778337177e-06
0.82715659273346,20216535.867841,35956103.793634,0.0021674672702902,-6.5008545107382e-05,8.2715659273346e-05,0.0021672014141571,0.035262959153825,20216535.867872,35956103.793646,20216535.867812,35956103.793622,65,3,0.104538242387,4.030037003665e-06
0.82932406000376,20215227.273506,35953896.653291,0.0021677331686171,-6.518148609843e-05,8.2932406000376e-05,0.0021674672702902,0.035362946887632,20215227.273537,35953896.653302,20215227.273476,35953896.653279,65,3,0.10455153222297,4.0300961823351e-06
0.83149179317237,20213918.649605,35951689.55136,0.0021679991090625,-6.5354411607287e-05,8.3149179317237e-05,0.0021677331686171,0.035462934621001,20213918.649635,35951689.551373,20213918.649575,35951689.551348,65,3,0.10456482361033,4.0301553697301e-06
0.83365979228143,20212609.997867,35949482.488148,0.0021682650915536,-6.552732163511e-05,8.3365979228143e-05,0.0021679991090625,0.035562922353936,20212609.997898,35949482.48816,20212609.997836,35949482.488136,65,3,0.10457811654921,4.0302145658518e-06
0.83582805737299,20211301.319978,35947275.463949,0.0021685311160197,-6.5700216183055e-05,8.3582805737299e-05,0.0021682650915536,0.035662910086439,20211301.320008,35947275.463962,20211301.319948,35947275.463936,65,3,0.1045914110397,4.0302737707024e-06
0.83799658848901,20209992.617562,35945068.479053,0.0021687971823926,-6.5873095252281e-05,8.3799658848901e-05,0.0021685311160197,0.035762897818516,20209992.617593,35945068.479065,20209992.617532,35945068.47904,65,3,0.10460470708191,4.0303329842838e-06
0.8401653856714,20208683.892204,35942861.533736,0.0021690632906071,-6.6045958843951e-05,8.401653856714e-05,0.0021687971823926,0.035862885550168,20208683.892234,35942861.533749,20208683.892174,35942861.533724,65,3,0.10461800467596,4.030392206598e-06
0.84233444896201,20207375.145438,35940654.62827,0.0021693294405986,-6.6218806959228e-05,8.4233444896201e-05,0.0021690632906071,0.0359628732814,20207375.145468,35940654.628283,20207375.145408,35940654.628257,65,3,0.10463130382196,4.0304514376469e-06
0.84450377840261,20206066.378749,35938447.762918,0.0021695956323069,-6.639163959928e-05,8.4450377840261e-05,0.0021693294405986,0.036062861012215,20206066.37878,35938447.762931,20206066.378718,35938447.762905,65,3,0.10464460452001,4.0305106774324e-06
0.84667337403491,20204757.593579,35936240.937935,0.0021698618656711,-6.6564456765276e-05,8.4667337403491e-05,0.0021695956323069,0.036162848742615,20204757.593611,35936240.937948,20204757.593548,35936240.937922,65,3,0.10465790677023,4.0305699259565e-06
0.84884323590058,20203448.791329,35934034.15357,0.0021701281406345,-6.6737258458385e-05,8.4884323590058e-05,0.0021698618656711,0.036262836472603,20203448.791361,35934034.153583,20203448.791298,35934034.153556,65,3,0.10467121057273,4.0306291832209e-06
0.85101336404122,20202139.973352,35931827.410062,0.0021703944571408,-6.6910044679782e-05,8.5101336404122e-05,0.0021701281406345,0.036362824202183,20202139.973384,35931827.410076,20202139.973321,35931827.410048,65,3,0.10468451592763,4.0306884492276e-06
0.85318375849836,20200831.140968,35929620.707645,0.0021706608151373,-6.7082815430639e-05,8.5318375849836e-05,0.0021703944571408,0.036462811931358,20200831.140999,35929620.707658,20200831.140935,35929620.70763,65,3,0.10469782283504,4.0307477239785e-06
0.8553544193135,20199522.29545,35927414.046545,0.0021709272145709,-6.7255570712134e-05,8.553544193135e-05,0.0021706608151373,0.036562799660129,20199522.295482,35927414.046558,20199522.29542,35927414.04653,65,3,0.10471113129507,4.0308070074753e-06
0.85752534652807,20198213.438041,35925207.426981,0.0021711936553929,-6.7428310525446e-05,8.5752534652807e-05,0.0021709272145709,0.0366627873885,20198213.438072,35925207.426995,20198213.438009,35925207.426967,65,3,0.10472444130785,4.0308662997199e-06
0.85969654018346,20196904.569938,35923000.849168,0.0021714601375538,-6.7601034871754e-05,8.5969654018346e-05,0.0021711936553929,0.036762775116473,20196904.569969,35923000.849182,20196904.569906,35923000.849154,65,3,0.10473775287349,4.030925600714e-06
0.86186800032101,20195595.692307,35920794.313314,0.002171726661007,-6.7773743752241e-05,8.6186800032101e-05,0.0021714601375538,0.036862762844051,20195595.69234,35920794.313328,20195595.692275,35920794.313299,65,3,0.1047510659921,4.0309849104596e-06
0.86403972698202,20194286.806277,35918587.81962,0.0021719932257075,-6.7946437168089e-05,8.6403972698202e-05,0.002171726661007,0.036962750571237,20194286.806309,35918587.819634,20194286.806245,35918587.819605,65,3,0.1047643806638,4.0310442289583e-06
0.86621172020773,20192977.912944,35916381.36828,0.0021722598316119,-6.8119115120485e-05,8.6621172020773e-05,0.0021719932257075,0.037062738298031,20192977.912977,35916381.368295,20192977.912912,35916381.368265,65,3,0.10477769688872,4.0311035562119e-06
0.86838398003934,20191669.013372,35914174.959487,0.0021725264786776,-6.8291777610615e-05,8.6838398003934e-05,0.0021722598316119,0.037162726024438,20191669.013404,35914174.959501,20191669.01334,35914174.959471,65,3,0.10479101466697,4.0311628922222e-06
0.87055650651802,20190360.108589,35911968.593422,0.0021727931668643,-6.8464424639666e-05,8.7055650651802e-05,0.0021725264786776,0.037262713750458,20190360.108622,35911968.593436,20190360.108557,35911968.593408,65,3,0.10480433399867,4.0312222369908e-06
0.87272929968488,20189051.199598,35909762.270266,0.0021730598961325,-6.863705620883e-05,8.7272929968488e-05,0.0021727931668643,0.037362701476094,20189051.19963,35909762.27028,20189051.199566,35909762.270251,65,3,0.10481765488394,4.0312815905196e-06
0.87490235958102,20187742.287366,35907555.990192,0.0021733266664449,-6.8809672319295e-05,8.7490235958102e-05,0.0021730598961325,0.037462689201348,20187742.287399,35907555.990207,20187742.287334,35907555.990177,65,3,0.1048309773229,4.0313409528103e-06
0.87707568624746,20186433.372834,35905349.753369,0.0021735934777646,-6.8982272972256e-05,8.7707568624746e-05,0.0021733266664449,0.037562676926223,20186433.372866,35905349.753383,20186433.372802,35905349.753353,65,3,0.10484430131568,4.0314003238644e-06
0.87924927972522,20185124.456915,35903143.55996,0.0021738603300572,-6.9154858168905e-05,8.7924927972522e-05,0.0021735934777646,0.03766266465072,20185124.456948,35903143.559975,20185124.456882,35903143.559944,65,3,0.10485762686239,4.0314597036839e-06
0.88142314005528,20183815.540496,35900937.410125,0.0021741272232878,-6.9327427910438e-05,8.8142314005528e-05,0.0021738603300572,0.03776265237484,20183815.540528,35900937.41014,20183815.540464,35900937.410109,65,3,0.10487095396316,4.0315190922702e-06
0.88359726727857,20182506.624431,35898731.30402,0.0021743941574239,-6.9499982198051e-05,8.8359726727857e-05,0.0021741272232878,0.037862640098586,20182506.624464,35898731.304035,20182506.624398,35898731.304004,65,3,0.10488428261811,4.0315784896251e-06
0.88577166143599,20181197.709556,35896525.241792,0.0021746611324348,-6.9672521032941e-05,8.8577166143599e-05,0.0021743941574239,0.03796262782196,20181197.709589,35896525.241807,20181197.709524,35896525.241776,65,3,0.10489761282736,4.0316378957502e-06
0.88794632256843,20179888.796675,35894319.22359,0.0021749281482891,-6.9845044416307e-05,8.8794632256843e-05,0.0021746611324348,0.038062615544963,20179888.796709,35894319.223605,20179888.796643,35894319.223574,65,3,0.10491094459104,4.0316973106472e-06
0.89012125071672,20178579.886574,35892113.249556,0.0021751952049585,-7.0017552349348e-05,8.9012125071672e-05,0.0021749281482891,0.038162603267597,20178579.886609,35892113.249571,20178579.886542,35892113.24954,65,3,0.10492427790927,4.0317567343178e-06
0.89229644592168,20177270.980011,35889907.319825,0.0021754623024142,-7.0190044833265e-05,8.9229644592168e-05,0.0021751952049585,0.038262590989864,20177270.980045,35889907.319839,20177270.979978,35889907.319808,65,3,0.10493761278218,4.0318161667635e-06
0.89447190822409,20175962.077726,35887701.43453,0.0021757294406292,-7.036252186926e-05,8.9447190822409e-05,0.0021754623024142,0.038362578711765,20175962.07776,35887701.434545,20175962.077693,35887701.434514,65,3,0.10495094920989,4.031875607986e-06
0.89664763766472,20174653.180429,35885495.593805,0.0021759966195775,-7.0534983458536e-05,8.9664763766472e-05,0.0021757294406292,0.038462566433301,20174653.180463,35885495.593819,20174653.180397,35885495.593789,65,3,0.10496428719252,4.0319350579869e-06
0.8988236342843,20173344.288816,35883289.797774,0.0021762638392342,-7.0707429602295e-05,8.988236342843e-05,0.0021759966195775,0.038562554154474,20173344.288849,35883289.797788,20173344.288783,35883289.797758,65,3,0.10497762673021,4.0319945167677e-06
0.90099989812353,20172035.40356,35881084.046559,0.0021765310995747,-7.0879860301744e-05,9.0099989812353e-05,0.0021762638392342,0.038662541875286,20172035.403594,35881084.046574,20172035.403525,35881084.046543,65,3,0.10499096782307,4.0320539843302e-06
0.90317642922311,20170726.52531,35878878.340282,0.0021767984005766,-7.1052275558087e-05,9.0317642922311e-05,0.0021765310995747,0.038762529595738,20170726.525344,35878878.340296,20170726.525277,35878878.340266,65,3,0.10500431047124,4.0321134606758e-06
0.90535322762368,20169417.6547,35876672.679055,0.002177065742217,-7.122467537253e-05,9.0535322762368e-05,0.0021767984005766,0.038862517315831,20169417.654735,35876672.67907,20169417.654667,35876672.67904,65,3,0.10501765467484,4.0321729458063e-06
0.9075302933659,20168108.792349,35874467.062992,0.0021773331244745,-7.1397059746281e-05,9.075302933659e-05,0.002177065742217,0.038962505035567,20168108.792383,35874467.063007,20168108.792315,35874467.062976,65,3,0.105031000434,4.032232439723e-06
0.90970762649037,20166799.938844,35872261.492205,0.002177600547329,-7.1569428680549e-05,9.0970762649037e-05,0.0021773331244745,0.039062492754946,20166799.938877,35872261.492221,20166799.938811,35872261.492189,65,3,0.10504434774884,4.0322919424276e-06
0.9118852270377,20165491.094767,35870055.966797,0.0021778680107598,-7.1741782176541e-05,9.118852270377e-05,0.002177600547329,0.039162480473971,20165491.094801,35870055.966813,20165491.094734,35870055.966782,65,3,0.1050576966195,4.0323514539217e-06
0.91406309504846,20164182.260678,35867850.486872,0.0021781355147489,-7.1914120235468e-05,9.1406309504846e-05,0.0021778680107598,0.039262468192642,20164182.260712,35867850.486888,20164182.260645,35867850.486857,65,3,0.1050710470461,4.0324109742068e-06
0.91624123056321,20162873.437119,35865645.052532,0.0021784030592778,-7.208644285854e-05,9.1624123056321e-05,0.0021781355147489,0.03936245591096,20162873.437152,35865645.052548,20162873.437086,35865645.052517,65,3,0.10508439902877,4.0324705032845e-06
0.91841963362249,20161564.624616,35863439.663874,0.0021786706443291,-7.2258750046968e-05,9.1841963362249e-05,0.0021784030592778,0.039462443628926,20161564.624649,35863439.66389,20161564.624582,35863439.663858,65,3,0.10509775256764,4.0325300411562e-06
0.92059830426682,20160255.823682,35861234.320992,0.0021789382698862,-7.2431041801963e-05,9.2059830426682e-05,0.0021786706443291,0.039562431346542,20160255.823716,35861234.321007,20160255.823649,35861234.320976,65,3,0.10511110766284,4.0325895878236e-06
0.92277724253671,20158947.034812,35859029.023978,0.0021792059359331,-7.2603318124738e-05,9.227772425367e-05,0.0021789382698862,0.039662419063809,20158947.034846,35859029.023994,20158947.034779,35859029.023963,65,3,0.10512446431449,4.0326491432881e-06
0.92495644847264,20157638.258488,35856823.772923,0.0021794736424541,-7.2775579016506e-05,9.2495644847264e-05,0.0021792059359331,0.039762406780727,20157638.258522,35856823.772939,20157638.258456,35856823.772908,65,3,0.10513782252273,4.0327087075513e-06
0.92713592211509,20156329.495176,35854618.567914,0.0021797413894354,-7.294782447848e-05,9.2713592211509e-05,0.0021794736424541,0.039862394497298,20156329.49521,35854618.567929,20156329.495143,35854618.567899,65,3,0.10515118228769,4.0327682806147e-06
0.92931566350453,20155020.745326,35852413.409036,0.0021800091768621,-7.3120054511876e-05,9.2931566350453e-05,0.0021797413894354,0.039962382213523,20155020.745358,35852413.409051,20155020.745292,35852413.40902,65,3,0.1051645436095,4.0328278624798e-06
0.93149567268139,20153712.009382,35850208.296369,0.0021802770047215,-7.3292269117906e-05,9.3149567268139e-05,0.0021800091768621,0.040062369929402,20153712.009416,35850208.296384,20153712.009349,35850208.296353,65,3,0.10517790648828,4.0328874531481e-06
0.93367594968611,20152403.287767,35848003.229997,0.0021805448730004,-7.3464468297788e-05,9.3367594968611e-05,0.0021802770047215,0.040162357644936,20152403.2878,35848003.230013,20152403.287734,35848003.229981,65,3,0.10519127092417,4.0329470526211e-06
0.93585649455911,20151094.580894,35845798.209996,0.0021808127816874,-7.3636652052737e-05,9.3585649455911e-05,0.0021805448730004,0.040262345360127,20151094.580927,35845798.210011,20151094.58086,35845798.20998,65,3,0.1052046369173,4.0330066609003e-06
0.9380373073408,20149785.889163,35843593.236444,0.0021810807307699,-7.3808820383968e-05,9.380373073408e-05,0.0021808127816874,0.040362333074974,20149785.889197,35843593.236459,20149785.88913,35843593.236428,65,3,0.10521800446779,4.0330662779872e-06
0.94021838807157,20148477.212967,35841388.30941,0.0021813487202378,-7.39809732927e-05,9.4021838807157e-05,0.0021810807307699,0.04046232078948,20148477.213,35841388.309426,20148477.212934,35841388.309395,65,3,0.10523137357579,4.0331259038833e-06
0.94239973679181,20147168.552678,35839183.428972,0.0021816167500799,-7.4153110780149e-05,9.4239973679181e-05,0.0021813487202378,0.040562308503644,20147168.552713,35839183.428987,20147168.552647,35839183.428956,65,3,0.10524474424142,4.03318553859e-06
0.94458135354189,20145859.908664,35836978.595196,0.0021818848202865,-7.4325232847533e-05,9.4458135354189e-05,0.0021816167500799,0.040662296217468,20145859.908698,35836978.595211,20145859.908631,35836978.59518,65,3,0.10525811646481,4.0332451821088e-06
0.94676323836217,20144551.281278,35834773.808152,0.0021821529308483,-7.449733949607e-05,9.4676323836217e-05,0.0021818848202865,0.040762283930952,20144551.281313,35834773.808166,20144551.281245,35834773.808136,65,3,0.1052714902461,4.0333048344413e-06
0.94894539129302,20143242.670869,35832569.067902,0.0021824210817563,-7.4669430726978e-05,9.4894539129302e-05,0.0021821529308483,0.040862271644097,20143242.670904,35832569.067917,20143242.670836,35832569.067887,65,3,0.10528486558541,4.0333644955888e-06
0.95112781237478,20141934.07777,35830364.374515,0.0021826892730019,-7.4841506541477e-05,9.5112781237478e-05,0.0021824210817563,0.040962259356904,20141934.077805,35830364.37453,20141934.077737,35830364.374501,65,3,0.10529824248289,4.0334241655529e-06
0.95331050164778,20140625.5023,35828159.728054,0.0021829575045766,-7.5013566940788e-05,9.5331050164778e-05,0.0021826892730019,0.041062247069373,20140625.502334,35828159.728069,20140625.502268,35828159.728039,65,3,0.10531162093865,4.033483844335e-06
0.95549345915236,20139316.944777,35825955.128577,0.0021832257764737,-7.5185611926128e-05,9.5549345915236e-05,0.0021829575045766,0.041162234781505,20139316.944811,35825955.128592,20139316.944744,35825955.128561,65,3,0.10532500095284,4.0335435319365e-06
0.95767668492883,20138008.405509,35823750.576145,0.0021834940886859,-7.5357641498718e-05,9.5767668492883e-05,0.0021832257764737,0.0412622224933,20138008.405543,35823750.57616,20138008.405476,35823750.576129,65,3,0.10533838252559,4.0336032283589e-06
0.95986017901752,20136699.884786,35821546.070817,0.002183762441206,-7.5529655659779e-05,9.5986017901752e-05,0.0021834940886859,0.04136221020476,20136699.884819,35821546.070831,20136699.884753,35821546.0708,65,3,0.10535176565703,4.0336629336037e-06
0.96204394145872,20135391.382899,35819341.612647,0.0021840308340283,-7.5701654410531e-05,9.6204394145872e-05,0.002183762441206,0.041462197915884,20135391.382932,35819341.612661,20135391.382866,35819341.612631,65,3,0.10536515034728,4.0337226476723e-06
0.96422797229275,20134082.900125,35817137.201691,0.0021842992671459,-7.5873637752196e-05,9.6422797229275e-05,0.0021840308340283,0.041562185626674,20134082.900159,35817137.201706,20134082.900093,35817137.201675,65,3,0.1053785365965,4.0337823705662e-06
0.9664122715599,20132774.436735,35814932.838002,0.0021845677405542,-7.6045605685995e-05,9.664122715599e-05,0.0021842992671459,0.04166217333713,20132774.436769,35814932.838017,20132774.436703,35814932.837986,65,3,0.1053919244048,4.0338421022867e-06
0.96859683930045,20131465.992991,35812728.521635,0.0021848362542476,-7.6217558213151e-05,9.6859683930045e-05,0.0021845677405542,0.041762161047253,20131465.993024,35812728.521649,20131465.992959,35812728.521618,65,3,0.10540531377233,4.0339018428354e-06
0.9707816755547,20130157.569149,35810524.252636,0.0021851048082215,-7.6389495334884e-05,9.707816755547e-05,0.0021848362542476,0.041862148757042,20130157.569185,35810524.25265,20130157.569117,35810524.252619,65,3,0.10541870469921,4.0339615922136e-06
0.97296678036292,20128849.165453,35808320.031059,0.0021853734024709,-7.6561417052417e-05,9.7296678036292e-05,0.0021851048082215,0.041962136466499,20128849.165487,35808320.031075,20128849.165421,35808320.031043,65,3,0.10543209718559,4.0340213504229e-06
0.97515215376539,20127540.782145,35806115.85695,0.0021856420369926,-7.6733323366974e-05,9.7515215376539e-05,0.0021853734024709,0.042062124175625,20127540.782179,35806115.856964,20127540.782113,35806115.856933,65,3,0.10544549123158,4.0340811174645e-06
0.97733779580238,20126232.419455,35803911.730355,0.0021859107117826,-7.6905214279775e-05,9.7733779580238e-05,0.0021856420369926,0.042162111884418,20126232.419488,35803911.73037,20126232.419422,35803911.730339,65,3,0.10545888683734,4.03414089334e-06
0.97952370651417,20124924.077608,35801707.65132,0.0021861794268369,-7.7077089792046e-05,9.7952370651417e-05,0.0021859107117826,0.042262099592881,20124924.077643,35801707.651335,20124924.077576,35801707.651304,65,3,0.10547228400299,4.0342006780508e-06
0.981709885941,20123615.756826,35799503.61989,0.002186448182153,-7.7248949905007e-05,9.81709885941e-05,0.0021861794268369,0.042362087301013,20123615.75686,35799503.619905,20123615.756794,35799503.619874,65,3,0.10548568272866,4.0342604715982e-06
0.98389633412316,20122307.45732,35797299.63611,0.0021867169777274,-7.7420794619884e-05,9.8389633412316e-05,0.002186448182153,0.042462075008815,20122307.457354,35797299.636125,20122307.457288,35797299.636093,65,3,0.10549908301449,4.0343202739838e-06
0.98608305110088,20120999.179296,35795095.700021,0.0021869858135584,-7.75926239379e-05,9.8608305110088e-05,0.0021867169777274,0.042562062716287,20120999.17933,35795095.700036,20120999.179264,35795095.700005,65,3,0.10551248486062,4.0343800852089e-06
0.98827003691444,20119690.922951,35792891.811665,0.002187254689643,-7.7764437860279e-05,9.8827003691444e-05,0.0021869858135584,0.04266205042343,20119690.922986,35792891.81168,20119690.922919,35792891.811649,65,3,0.10552588826718,4.0344399052749e-06
0.99045729160408,20118382.688487,35790687.97108,0.0021875236059793,-7.7936236388244e-05,9.9045729160408e-05,0.002187254689643,0.042762038130244,20118382.688521,35790687.971095,20118382.688455,35790687.971064,65,3,0.1055392932343,4.0344997341833e-06
0.99264481521006,20117074.476082,35788484.17831,0.0021877925625661,-7.8108019523021e-05,9.9264481521006e-05,0.0021875236059793,0.04286202583673,20117074.476117,35788484.178324,20117074.47605,35788484.178294,65,3,0.10555269976212,4.0345595719355e-06
0.99483260777263,20115766.285928,35786280.433389,0.0021880615594017,-7.8279787265832e-05,9.9483260777263e-05,0.0021877925625661,0.042962013542887,20115766.285962,35786280.433403,20115766.285896,35786280.433372,65,3,0.10556610785077,4.0346194185328e-06
0.99702066933203,20114458.118196,35784076.736356,0.0021883305964845,-7.8451539617904e-05,9.9702066933203e-05,0.0021880615594017,0.043062001248717,20114458.118232,35784076.736371,20114458.118164,35784076.73634,65,3,0.1055795175004,4.0346792739767e-06
0.99920899992852,20113149.973058,35781873.08725,0.002188599673814,-7.862327658046e-05,9.9920899992852e-05,0.0021883305964845,0.043161988954219,20113149.973095,35781873.087264,20113149.973026,35781873.087233,65,3,0.10559292871112,4.0347391382685e-06
1.0013975996023,19819691.705346,35192942.392495,0.0023075814102566,-7.8735898966709e-05,0.0001,0.002188599673814,0.043256832831193,19819691.705368,35192942.392503,19819691.705334,35192942.392474,67,3,0.10560568759869,4.03465461217e-06
1.0037051810126,19357823.445101,34268676.637834,0.0024978161393322,-7.8815603721219e-05,0.0001,0.0023075814102566,0.043349216789074,19357823.445319,34268676.638217,19357823.444872,34268676.637467,41,2,0.1056181534442,4.0344872321855e-06
1.0062029971519,18894350.356629,33345682.827799,0.0027020445782003,-7.8895595775146e-05,0.0001,0.0024978161393322,0.043441658496339,18894350.35686,33345682.828185,18894350.356393,33345682.827422,41,2,0.10563065606208,4.0343192488723e-06
1.0089050417301,18430509.812114,32426479.214054,0.0029290478110411,-7.8975660522547e-05,0.0001,0.0027020445782003,0.043533908427112,18430509.812355,32426479.214439,18430509.811872,32426479.213669,41,2,0.10564316254771,4.0341511129028e-06
1.0118340895412,17966209.866595,31510924.305245,0.0031811735961859,-7.9055814902155e-05,0.0001,0.0029290478110411,0.043625982868265,17966209.866846,31510924.305628,17966209.866346,31510924.304854,41,2,0.10565567487797,4.0339827887056e-06
1.0150152631373,17501493.232899,30599144.301452,0.003461995968416,-7.9136052470038e-05,0.0001,0.0031811735961859,0.043717871294045,17501493.233158,30599144.301833,17501493.232644,30599144.301055,41,2,0.10566819146352,4.033814289813e-06
1.0184772591058,17036392.235483,29691244.325261,0.0037755974873452,-7.9216368673556e-05,0.0001,0.003461995968416,0.043809565283664,17036392.235749,29691244.325634,17036392.235222,29691244.324859,41,2,0.10568071094989,4.0336456257856e-06
1.0222528565931,16570943.913653,28787338.175982,0.0041267760160335,-7.9296758227189e-05,0.0001,0.0037755974873452,0.043901055528643,16570943.913987,28787338.176692,16570943.91318,28787338.175039,40,2,0.10569323181829,4.033476807723e-06
1.0263796326091,16105188.817032,27887545.785328,0.004521178646019,-7.937721533118e-05,0.0001,0.0041267760160335,0.043992332081475,16105188.817369,27887545.786078,16105188.816554,27887545.784363,40,2,0.10570575241313,4.0333078478047e-06
1.0309008112552,15639171.554723,26991994.103865,0.0049654811249102,-7.9457733585487e-05,0.0001,0.004521178646019,0.044083384258124,15639171.555064,26991994.104659,15639171.554239,26991994.102876,40,2,0.10571827092325,4.0331387594706e-06
1.0358662923801,15172941.20918,26100817.691776,0.0054676093710157,-7.9538305928449e-05,0.0001,0.0049654811249102,0.044174200569005,15172941.209523,26100817.692623,15172941.208693,26100817.690763,40,2,0.10573078536614,4.0329695575504e-06
1.0413339017511,14706551.825089,25214159.424837,0.006037016685093,-7.9618924563688e-05,0.0001,0.0054676093710157,0.044264768636897,14706551.82543,25214159.425741,14706551.824598,25214159.423796,40,2,0.10574329356955,4.0328002584164e-06
1.0473709184362,14240062.95962,24332171.282556,0.0066850324438362,-7.9699580877816e-05,0.0001,0.006037016685093,0.044355075104885,14240062.959954,24332171.283527,14240062.959126,24332171.281487,40,2,0.1057557931509,4.0326308801567e-06
1.05405595088,13773540.306444,23455015.236837,0.0074253034701231,-7.978026534698e-05,0.0001,0.0066850324438362,0.044445105532184,13773540.306766,23455015.237882,13773540.305947,23455015.235736,40,2,0.10576828149392,4.0324614427715e-06
1.0614812543501,13307056.404926,22582864.256228,0.0082743563718856,-7.9860967430515e-05,0.0001,0.0074253034701231,0.044534844276015,13307056.405275,22582864.257353,13307056.404425,22582864.255092,40,2,0.10578075572215,4.0322919683961e-06
1.069755610722,12840691.448422,21715903.444515,0.0092523189669702,-7.9941675449574e-05,0.0001,0.0082743563718856,0.044624274357264,12840691.448824,21715903.445726,12840691.447917,21715903.443339,40,2,0.10579321266889,4.032122481556e-06
1.079007929689,12374534.208275,20854331.335864,0.010383852577151,-8.0022376448173e-05,0.0001,0.0092523189669702,0.044713377307209,12374534.208735,20854331.337161,12374534.207762,20854331.334642,40,2,0.10580564884288,4.031953009459e-06
1.0893917822661,11908683.093306,19998361.373086,0.011699366170869,-8.0103056033599e-05,0.0001,0.010383852577151,0.044802132992106,11908683.093828,19998361.374462,11908683.092779,19998361.371814,40,2,0.1058180603891,4.0317835823296e-06
1.101091148437,11443247.368615,19148223.600991,0.013236610569546,-8.0183698192499e-05,0.0001,0.011699366170869,0.044890519411765,11443247.3692,19148223.602432,11443247.368066,19148223.599664,40,2,0.10583044304379,4.0316142337959e-06
1.1143277590066,10978348.562417,18304166.61334,0.015042789984604,-8.0264285078189e-05,0.0001,0.013236610569546,0.044978512467427,10978348.563061,18304166.614814,10978348.561837,18304166.611951,40,2,0.10584279208278,4.031445001336e-06
1.1293705489912,10514122.095657,17466459.800123,0.017177384782316,-8.034479676375e-05,0.0001,0.015042789984604,0.045066085693323,10514122.096346,17466459.801584,10514122.095034,17466459.798668,40,2,0.10585510226182,4.0312759267963e-06
1.1465479337735,10050719.176767,16635395.952065,0.019715962481826,-8.0425210954303e-05,0.0001,0.017177384782316,0.045153209945004,10050719.177475,16635395.95345,10050719.176089,16635395.950544,40,2,0.10586736774755,4.0311070569961e-06
1.1662638962553,9588309.013256,15811294.291978,0.022755377523499,-8.0505502650301e-05,0.0001,0.019715962481826,0.045239853036074,9588309.0139455,15811294.293208,9588309.0125132,15811294.290394,40,2,0.10587958203733,4.0309384444346e-06
1.1890192737788,9127081.4036753,14994504.018424,0.026420946454682,-8.0585643751804e-05,0.0001,0.022755377523499,0.045325979313004,9127081.4045568,14994504.019492,9127081.4028696,14994504.016787,40,2,0.10589173786572,4.0307701481214e-06
1.2154402202335,8667249.7885462,14185408.467798,0.030876469701841,-8.0665602591212e-05,0.0001,0.026420946454682,0.045411549155264,8667249.7903678,14185408.469657,8667249.7870177,14185408.466057,41,2,0.10590382709523,4.0306022345588e-06
1.2463166899353,8209054.8570325,13384430.027474,0.036338413096825,-8.0745343379019e-05,0.0001,0.030876469701841,0.045496518384966,8209054.8573876,13384430.027864,8209054.8567493,13384430.027035,64,3,0.10591584058789,4.0304347789042e-06
1.2826551030322,7752768.8331889,12592035.956786,0.043096259169085,-8.0824825542299e-05,0.0001,0.036338413096825,0.045580837566698,7752768.8335056,12592035.957125,7752768.8329366,12592035.956405,64,3,0.105927768054,4.0302678663613e-06
1.3257513622012,7298700.5902365,11808745.341932,0.051542161288524,-8.0904002932369e-05,0.0001,0.043096259169085,0.045664451171721,7298700.5905186,11808745.342226,7298700.5900114,11808745.341607,64,3,0.10593959787309,4.0301015938421e-06
1.3772935234898,6847201.7881107,11035137.418351,0.062214869960358,-8.0982822868804e-05,0.0001,0.051542161288524,0.045747296577186,6847201.78836,11035137.418602,6847201.7879112,11035137.418075,65,3,0.10595131688142,4.0299360719756e-06
1.4395083934501,6398674.27808,10271861.615056,0.07586598042744,-8.106122497971e-05,0.0001,0.062214869960358,0.045829302859314,6398674.2782981,10271861.615268,6398674.2779035,10271861.614824,65,3,0.10596291011852,4.0297714275427e-06
1.5153743738776,5953579.0837839,9519649.7335548,0.093561821914923,-8.1139139785977e-05,0.0001,0.07586598042744,0.045910389331189,5953579.0839601,9519649.7337667,5953579.0836154,9519649.7332904,65,3,0.10597436052415,4.0296078064496e-06
1.6089361957925,5512447.3580294,8779330.8091662,0.11684356996463,-8.1216486961177e-05,0.0001,0.093561821914923,0.045990463760552,5512447.3582064,8779330.8093848,5512447.357867,8779330.808906,66,3,0.10598564857441,4.0294453773816e-06
1.7257797657571,4967193.7038698,7871770.2775872,0.12468873164086,-8.1313057868708e-05,0.0001,0.11684356996463,0.046084171963699,4967193.7039993,7871770.2777032,4967193.7037493,7871770.2774773,67,3,0.10599914813433,4.0292425784758e-06
1.850468497398,4550137.9739341,7182792.071908,0.17478403894166,-8.1386498316415e-05,0.0001,0.12468873164086,0.046155510703998,4550137.9740461,7182792.0720033,4550137.9738277,7182792.071819,66,3,0.10600967011785,4.0290883535356e-06
2,4168054.6921261,6555772.5138324,0.22959631499022,-8.1453773587703e-05,0.0001,0.14953150260203,0.046220638710339,4168054.6922287,6555772.5139105,4168054.6920319,6555772.5137603,66,3,0.10601931167303,4.0289470754659e-06
