time,avg_hydro,avg_vonmises,creep_timestep,disp_x,disp_y,dt,lps_eff_creep_strain,max_hydro,max_vonmises,min_hydro,min_vonmises,num_lin,num_nonlin,porosity,volume
0.01,-2381534.0426375,4884810.6211181,346.89818054815,4.2872678801721e-07,-1e-06,0.01,2.8826896473428e-09,-2381533.9612554,4884810.7561686,-2381534.1347368,4884810.5315221,42,2,0.099999999656816,3.9988570248505e-06
0.03,-7147605.8386173,14660341.130258,14.544115680387,1.2872024680816e-06,-3e-06,0.02,1.4039534727107e-07,-7147605.8386152,14660341.130262,-7147605.8386207,14660341.130254,63,3,0.09999998395647,3.9965705433288e-06
0.07,-16680100.24105,34205944.94319,1.1410319161931,3.0103708817331e-06,-7e-06,0.04,3.645994045417e-06,-16680100.241036,34205944.943235,-16680100.241063,34205944.943158,62,3,0.099999584022473,3.9919996691673e-06
0.15,-35680810.96162,73111916.332323,0.1920138445691,6.493612128042e-06,-1.5e-05,0.08,4.5309656217565e-05,-35680810.937127,73111916.373372,-35680811.00217,73111916.183728,63,3,0.099995562179796,3.9828898200759e-06
0.23,-54361884.137122,111190393.96756,0.053217554676849,1.0069394234341e-05,-2.3e-05,0.08,0.00019563598493843,-54361883.743051,111190394.67769,-54361884.881656,111190391.34619,63,3,0.099981124767662,3.9739071924016e-06
0.28321755467685,-66530498.236338,135863378.68332,0.029180183207964,1.251455275191e-05,-2.8321755467685e-05,0.053217554676849,0.00037801165483561,-66530498.221998,135863378.69967,-66530498.24277,135863378.672,63,3,0.099963583122439,3.9680311604653e-06
0.31239773788481,-73106368.829881,149148446.39974,0.022394842036926,1.3879424445423e-05,-3.1239773788481e-05,0.029180183207964,0.00050831033306471,-73106368.816716,149148446.42038,-73106368.836396,149148446.39272,64,3,0.099950989559111,3.9648457112332e-06
0.33479257992174,-78082727.632531,159168249.65921,0.018493981193505,1.4942967373274e-05,-3.3479257992174e-05,0.022394842036926,0.00062940292947583,-78082727.619512,159168249.6795,-78082727.638912,159168249.6523,62,3,0.099939266109128,3.9624271393016e-06
0.35328656111524,-82138483.859886,167308863.34403,0.015959065216581,1.5833188988851e-05,-3.5328656111524e-05,0.018493981193505,0.00074528679067345,-82138483.602474,167308863.67672,-82138483.952242,167308863.04644,42,2,0.099928033180641,3.9604497004555e-06
0.36924562633183,-85594724.886466,174225528.50161,0.014153790120172,1.6610901400203e-05,-3.6924562633183e-05,0.015959065216581,0.00085804150130903,-85594724.791011,174225528.64428,-85594724.935031,174225528.34361,43,2,0.099917092807831,3.9587593272639e-06
0.383399416452,-88623337.110216,180269141.25166,0.012791361220063,1.7308545120686e-05,-3.83399416452e-05,0.014153790120172,0.00096869266509185,-88623337.07968,180269141.33396,-88623337.144836,180269141.13306,43,2,0.099906347451668,3.9572735983392e-06
0.39619077767206,-91328798.856225,185653034.39509,0.011720407300918,1.7945795519514e-05,-3.9619077767206e-05,0.012791361220063,0.0010778301793842,-91328798.825268,185653034.44641,-91328798.879264,185653034.29657,43,2,0.099895741077403,3.9559424396322e-06
0.40791118497298,-93779960.512763,190517816.0996,0.010852755326638,1.8535595560275e-05,-4.0791118497298e-05,0.011720407300918,0.001185824941291,-93779960.463527,190517816.16997,-93779960.548425,190517816.018,43,2,0.099885238506562,3.9547328664464e-06
0.41876394029962,-96024894.511852,194961673.79971,0.010133218342484,1.908696907907e-05,-4.1876394029962e-05,0.010852755326638,0.0012929257155571,-96024894.462439,194961673.87933,-96024894.5476,194961673.72874,43,2,0.099874816185977,3.953621856656e-06
0.4288971586421,-98098655.254999,199056212.87077,0.0095253186612139,1.9606488177357e-05,-4.288971586421e-05,0.010133218342484,0.0013993076507107,-98098655.209935,199056212.95231,-98098655.288264,199056212.80908,43,2,0.099864457565118,3.9525926279157e-06
0.43842247730331,-100027684.84289,202855450.5777,0.0090038880778691,2.0099105049759e-05,-4.3842247730331e-05,0.0095253186612139,0.0015050988218167,-100027684.80317,202855450.65759,-100027684.87265,202855450.5241,43,2,0.099854150567755,3.9516325246931e-06
0.44742636538118,-101832478.58933,206401258.29239,0.0085509487392304,2.0568654586292e-05,-4.4742636538118e-05,0.0090038880778691,0.0016103957699822,-101832478.55476,206401258.36897,-101832478.61621,206401258.2458,43,2,0.099843886112311,3.9507317402576e-06
0.45597731412041,-103529281.0115,209726824.63568,0.0081532858530488,2.101817379644e-05,-4.5597731412041e-05,0.0085509487392304,0.0017152731026186,-103529280.98154,209726824.70828,-103529281.03646,209726824.59514,43,2,0.09983365719815,3.9498825037232e-06
0.46413059997346,-105131210.06629,212858951.37244,0.0078009491524169,2.1450113336912e-05,-4.6413059997346e-05,0.0081532858530488,0.0018197896898715,-105131209.97837,212858951.49519,-105131210.14525,212858951.2917,42,2,0.099823458316138,3.9490785412722e-06
0.47193154912588,-106649028.18629,215819628.09605,0.0074862911729494,2.1866482444904e-05,-4.7193154912588e-05,0.0078009491524169,0.0019239928119384,-106649028.10496,215819628.21457,-106649028.25864,215819628.01825,42,2,0.099813285054356,3.9483147067623e-06
0.47941784029883,-108091686.44061,218627143.75715,0.0072033292325459,2.2268951159941e-05,-4.7941784029883e-05,0.0074862911729494,0.0020279210222175,-108091686.36532,218627143.87128,-108091686.50703,218627143.68244,42,2,0.099803133826071,3.9475867210048e-06
0.48662116953138,-109466718.17406,221296890.69185,0.00694731021401,2.265892419963e-05,-4.8662116953137e-05,0.0072033292325459,0.0021316061750544,-109466718.1039,221296890.80012,-109466718.23552,221296890.62056,42,2,0.099793001677209,3.9468909832658e-06
0.49356847974539,-110780529.86292,223841958.78753,0.0067144061724031,2.3037595516726e-05,-4.9356847974538e-05,0.00694731021401,0.0022350748961622,-110780529.79765,223841958.89171,-110780529.91967,223841958.71927,42,2,0.099782886146844,3.9462244319776e-06
0.50028288591779,-112038620.06577,226273582.78483,0.0065014968571579,2.3405989343388e-05,-5.0028288591779e-05,0.0067144061724031,0.0023383496697098,-112038620.00494,226273582.88502,-112038620.1183,226273582.71948,42,2,0.099772785164134,3.9455844399069e-06
0.50678438277495,-113245746.97991,228601484.59331,0.0063060113338785,2.3764991582174e-05,-5.0678438277495e-05,0.0065014968571579,0.0024414496563458,-113245746.92311,228601484.68969,-113245747.02865,228601484.53077,42,2,0.099762696970831,3.944968733944e-06
0.51309039410882,-114406058.54978,230834139.11749,0.0061258106712341,2.4115374169227e-05,-5.1309039410882e-05,0.0063060113338785,0.0025443913184181,-114406058.49665,230834139.21022,-114406058.59511,230834139.05763,42,2,0.099752620062095,3.9443753328271e-06
0.51921620478006,-115523194.82789,232978983.39909,0.0059590997118657,2.4457814232191e-05,-5.1921620478006e-05,0.0061258106712341,0.002647188904546,-115523194.77811,232978983.48835,-115523194.87055,232978983.34178,42,2,0.099742553140676,3.9438024981545e-06
0.52517530449192,-116600369.45914,235042583.11081,0.0058043597990721,2.4792909333936e-05,-5.2517530449192e-05,0.0059590997118657,0.0027498548299296,-116600369.41177,235042583.19678,-116600369.49964,235042583.05591,42,2,0.099732495080971,3.9432486953934e-06
0.530979664291,-117640435.24153,237030766.51832,0.005660296838956,2.5121189732117e-05,-5.30979664291e-05,0.0058043597990721,0.0028523999782405,-117640435.19629,237030766.60116,-117640435.28006,237030766.46571,42,2,0.099722444900532,3.942712562512e-06
0.53663996112995,-118645937.38896,238948733.31697,0.0055258007444879,2.5443128335078e-05,-5.3663996112995e-05,0.005660296838956,0.0029548339437544,-118645937.3457,238948733.39686,-118645937.4257,238948733.26653,42,2,0.099712401737224,3.9421928844994e-06
0.54216576187444,-119619157.18826,240801143.84229,0.0053999134366012,2.5759148859113e-05,-5.4216576187444e-05,0.0055258007444879,0.0030571652273955,-119619157.14681,240801143.91937,-119619157.22335,240801143.79389,42,2,0.09970236483076,3.9416885724822e-06
0.54756567531104,-120562148.07463,242592192.79001,0.0052818033548433,2.6069632566708e-05,-5.4756567531104e-05,0.0053999134366012,0.0031594013968462,-120562148.03487,242592192.86444,-120562148.1082,242592192.74355,42,2,0.099692333507627,3.9411986464708e-06
0.55284747866588,-121476765.66634,244325670.59298,0.005170744974009,2.6374923874542e-05,-5.5284747866588e-05,0.0052818033548433,0.0032615492183545,-121476765.62814,244325670.66489,-121476765.69851,244325670.54836,42,2,0.099682307168692,3.9407222209954e-06
0.55801822363989,-122364692.94348,246005014.87596,0.0050661022091884,2.6675335053273e-05,-5.5801822363989e-05,0.005170744974009,0.0033636147660451,-122364692.90673,246005014.94548,-122364692.97437,246005014.83307,42,2,0.099672285278941,3.9402584930665e-06
0.56308432584908,-123227461.49173,247633353.86946,0.0049673148692774,2.6971150191576e-05,-5.6308432584908e-05,0.0050661022091884,0.003465603513192,-123227461.45634,247633353.93672,-123227461.52143,247633353.82822,42,2,0.099662267358909,3.9398067320173e-06
0.56805164071836,-124066469.53298,249213543.25804,0.0048738875210774,2.7262628559633e-05,-5.6805164071836e-05,0.0049673148692774,0.0035675204089152,-124066469.49884,249213543.32315,-124066469.56157,249213543.21837,42,2,0.099652252977496,3.9393662708837e-06
0.57292552823944,-124882997.31407,250748197.62973,0.0047853802749192,2.7550007478959e-05,-5.7292552823944e-05,0.0048738875210774,0.0036693699430109,-124882997.2811,250748197.69281,-124882997.34163,250748197.59154,42,2,0.099642241745895,3.9389364990478e-06
0.57771090851436,-125678220.30893,252239717.45721,0.0047014011134599,2.7833504783784e-05,-5.7771090851436e-05,0.0047853802749192,0.0037711562010524,-125678220.27708,252239717.51834,-125678220.33554,252239717.42043,42,2,0.099632233312446,3.9385168559278e-06
0.58241230962782,-126453220.59995,253690312.35796,0.0046215994684959,2.8113320942397e-05,-5.8241230962782e-05,0.0047014011134599,0.0038728829114657,-126453220.56913,253690312.41725,-126453220.62566,253690312.32253,42,2,0.099622227358233,3.9381068255379e-06
0.58703390909631,-127208996.73431,255102021.23816,0.0045456608137332,2.8389640893799e-05,-5.8703390909631e-05,0.0046215994684959,0.0039745534859432,-127208996.70446,255102021.29569,-127208996.75919,255102021.204,42,2,0.09961222359332,3.9377059317781e-06
0.59157956991005,-127946472.29627,256476729.81261,0.0044733020897469,2.8662635644744e-05,-5.9157956991005e-05,0.0045456608137332,0.0040761710542959,-127946472.26661,256476729.86833,-127946472.32105,256476729.7796,42,2,0.099602221753501,3.9373137343375e-06
0.59605287199979,-128666503.39368,257816185.9034,0.0044042678143603,2.8932463663788e-05,-5.9605287199979e-05,0.0044733020897469,0.0041777384946399,-128666503.36488,257816185.95761,-128666503.41771,257816185.87153,42,2,0.099592221597493,3.9369298251184e-06
0.60045713981415,-129369885.21861,259122012.85143,0.0043383267612653,2.9199272103415e-05,-6.0045713981415e-05,0.0044042678143603,0.0042792584596437,-129369885.19063,259122012.90421,-129369885.24194,259122012.82066,42,2,0.099582222904497,3.9365538250998e-06
0.60479546657542,-130057357.82073,260395721.31381,0.004275269111179,2.9463197874518e-05,-6.0479546657542e-05,0.0043383267612653,0.004380733399445,-130057357.79354,260395721.36521,-130057357.84341,260395721.28408,42,2,0.099572225472073,3.9361853815805e-06
0.6090707356866,-130729611.20272,261638719.67822,0.0042149039988648,2.972436859486e-05,-6.090707356866e-05,0.004275269111179,0.0044821655817243,-130729611.17627,261638719.7283,-130729611.22478,261638719.64948,42,2,0.099562229114278,3.9358241657448e-06
0.61328563968546,-131387289.8327,262852323.2855,0.0041570573927385,2.9982903428794e-05,-6.1328563968546e-05,0.0042149039988648,0.0045835571093531,-131387289.80696,262852323.33431,-131387289.85418,262852323.25772,42,2,0.099552233660032,3.9354698705069e-06
0.6174426970782,-132030996.65275,264037762.62205,0.004101570255319,3.0238913833016e-05,-6.174426970782e-05,0.0041570573927385,0.0046849099359582,-132030996.62767,264037762.66965,-132030996.67368,264037762.59518,42,2,0.099542238951685,3.9351222085963e-06
0.62154426733352,-132661296.64985,265196190.61815,0.0040482969418024,3.0492504220822e-05,-6.2154426733352e-05,0.004101570255319,0.0047862258796912,-132661296.62538,265196190.66458,-132661296.67026,265196190.59215,42,2,0.09953224484374,3.9347809108528e-06
0.62559256427532,-133278720.04606,266328689.16797,0.0039971038013377,3.0743772555389e-05,-6.2559256427532e-05,0.0040482969418024,0.0048875066354471,-133278720.02218,266328689.21329,-133278720.06597,266328689.14281,42,2,0.099522251201731,3.9344457247023e-06
0.62958966807666,-133883765.15597,267436274.96959,0.0039478679515061,3.0992810881099e-05,-6.2958966807666e-05,0.0039971038013377,0.0049887537857349,-133883765.13265,267436275.01383,-133883765.17541,267436274.94523,42,2,0.099512257901223,3.9341164127929e-06
0.63353753602817,-134476900.95265,268519904.7691,0.0039004762013383,3.1239705800547e-05,-6.3353753602817e-05,0.0039478679515061,0.0050899688103767,-134476900.92986,268519904.8123,-134476900.97164,268519904.7455,42,2,0.09950226482692,3.9337927517692e-06
0.6374380122295,-135058569.37722,269580480.08098,0.0038548241021505,3.1484538903846e-05,-6.374380122295e-05,0.0039004762013383,0.0051911530951828,-135058569.35495,269580480.12319,-135058569.39579,269580480.05813,42,2,0.09949227187187,3.93347453117e-06
0.64129283633165,-135629187.42272,270618851.44685,0.0038108151087397,3.1727387155871e-05,-6.4129283633165e-05,0.0038548241021505,0.00529230793973,-135629187.40093,270618851.48811,-135629187.44094,270618851.42471,42,2,0.09948227893675,3.9331615524333e-06
0.64510365144039,-136189149.01817,271635822.28613,0.0037683598361594,3.1968323246344e-05,-6.4510365144039e-05,0.0038108151087397,0.0053934345643524,-136189148.99685,271635822.32646,-136189149.03607,271635822.26467,42,2,0.099472285929233,3.9328536279967e-06
0.64887201127655,-136738826.73581,272632152.38508,0.0037273753995313,3.2207415906995e-05,-6.4887201127655e-05,0.0037683598361594,0.0054945341164376,-136738826.71493,272632152.42453,-136738826.7534,272632152.36428,42,2,0.099462292763407,3.9325505804827e-06
0.65259938667608,-137278573.34113,273608561.06468,0.0036877848261994,3.2444730199464e-05,-6.5259938667608e-05,0.0037273753995313,0.0055956076761111,-137278573.32066,273608561.10326,-137278573.35842,273608561.04451,42,2,0.099452299359261,3.9322522419587e-06
0.65628717150228,-137808723.2029,274565730.06227,0.0036495165310885,3.2680327777175e-05,-6.5628717150228e-05,0.0036877848261994,0.0056966562613767,-137808723.18271,274565730.10003,-137808723.21991,274565730.04271,42,2,0.099442305642213,3.9319584532638e-06
0.65993668803337,-138329593.57833,275504306.15801,0.0036125038474307,3.2914267123961e-05,-6.5993668803337e-05,0.0036495165310885,0.0057976808327768,-138329593.55839,275504306.19497,-138329593.59506,275504306.13904,42,2,0.099432311542693,3.9316690633957e-06
0.6635491918808,-138841485.78634,276424903.57269,0.0035766846061276,3.3146603771894e-05,-6.635491918808e-05,0.0036125038474307,0.0058986822976226,-138841485.76665,276424903.60888,-138841485.80282,276424903.55428,42,2,0.099422316995755,3.931383928951e-06
0.66712587648693,-139344686.28077,277328106.1609,0.0035420007579068,3.3377390500498e-05,-6.6712587648693e-05,0.0035766846061276,0.0059996615138437,-139344686.26132,277328106.19634,-139344686.29699,277328106.14303,42,2,0.099412321940729,3.9311029136124e-06
0.67066787724484,-139839467.63342,278214469.4201,0.0035083980332743,3.3606677519206e-05,-6.7066787724484e-05,0.0035420007579068,0.0061006192934952,-139839467.6142,278214469.45483,-139839467.6494,278214469.40256,42,2,0.099402326320906,3.9308258876802e-06
0.67417627527811,-140326089.43621,279084522.33419,0.0034758256358861,3.3834512634765e-05,-6.7417627527811e-05,0.0035083980332743,0.0062015564059599,-140326089.41721,279084522.36822,-140326089.45195,279084522.31688,42,2,0.099392330083247,3.9305527276416e-06
0.677652100914,-140804799.13013,279938769.0676,0.0034442359655436,3.4060941405058e-05,-6.77652100914e-05,0.0034758256358861,0.0063024735808754,-140804799.11135,279938769.10095,-140804799.14565,279938769.05053,42,2,0.099382333178121,3.9302833157753e-06
0.68109633687954,-141275832.76831,280777690.52457,0.003413584367511,3.4286007280648e-05,-6.8109633687954e-05,0.0034442359655436,0.0064033715108154,-141275832.74974,280777690.55727,-141275832.78361,280777690.50772,42,2,0.099372335559063,3.9300175397871e-06
0.68450992124705,-141739415.71918,281601745.7862,0.0033838289052621,3.4509751735225e-05,-6.8450992124705e-05,0.003413584367511,0.0065042508537483,-141739415.70081,281601745.81827,-141739415.73427,281601745.76957,42,2,0.099362337182555,3.929755292475e-06
0.68789375015231,-142195763.3156,282411373.43685,0.0033549301541256,3.4732214385985e-05,-6.8789375015231e-05,0.0033838289052621,0.006605112235296,-142195763.29742,282411373.4683,-142195763.33049,282411373.42044,42,2,0.099352338007824,3.9294964714193e-06
0.69124868030644,-142645081.45469,283206992.78993,0.0033268510136083,3.4953433104869e-05,-6.9124868030644e-05,0.0033549301541256,0.0067059562508113,-142645081.4367,283206992.82079,-142645081.46937,283206992.77372,42,2,0.099342337996652,3.9292409786962e-06
0.69457553132005,-143087567.15293,283989005.02223,0.0032995565364385,3.5173444121489e-05,-6.9457553132005e-05,0.0033268510136083,0.0068067834672911,-143087567.13513,283989005.05251,-143087567.16743,283989005.00622,42,2,0.099332337113212,3.9289887206134e-06
0.69787508785649,-143523409.06055,284757794.22494,0.0032730137726105,3.5392282118477e-05,-6.9787508785649e-05,0.0032995565364385,0.0069075944251417,-143523409.04292,284757794.25466,-143523409.07487,284757794.20913,42,2,0.099322335323905,3.9287396074647e-06
0.7011481016291,-143952787.93863,285513728.37865,0.0032471916269036,3.5609980319936e-05,-7.011481016291e-05,0.0032730137726105,0.0070083896398082,-143952787.92117,285513728.40783,-143952787.95276,285513728.36304,42,2,0.099312332597222,3.9284935533024e-06
0.704395293256,-144375877.10226,286257160.25888,0.0032220607285309,3.5826570573573e-05,-7.04395293256e-05,0.0032471916269036,0.0071091696032818,-144375877.08496,286257160.28753,-144375877.11622,286257160.24345,42,2,0.099302328903601,3.9282504757258e-06
0.70761735398453,-144792842.83261,286988428.27801,0.003197593311721,3.6042083427059e-05,-7.0761735398453e-05,0.0032220607285309,0.0072099347854947,-144792842.81548,286988428.30615,-144792842.8464,286988428.26277,42,2,0.099292324215313,3.928010295685e-06
0.71081494729625,-145203844.76052,287707857.26907,0.0031737631061726,3.6256548199103e-05,-7.1081494729625e-05,0.003197593311721,0.0073106856356133,-145203844.74354,287707857.29671,-145203844.77414,287707857.254,42,2,0.099282318506343,3.9277729372977e-06
0.71398871040243,-145609036.22386,288415759.21603,0.0031505452364363,3.6469993045672e-05,-7.1398871040243e-05,0.0031737631061726,0.0074114225832376,-145609036.20704,288415759.24319,-145609036.23733,288415759.20114,42,2,0.099272311752283,3.9275383276791e-06
0.71713925563886,-146008564.60104,289112433.93505,0.0031279161293802,3.6682445021756e-05,-7.1713925563886e-05,0.0031505452364363,0.0075121460395164,-146008564.58437,289112433.96175,-146008564.61435,289112433.92034,42,2,0.099262303930239,3.9273063967825e-06
0.72026717176824,-146402571.62224,289798169.71061,0.0031058534289883,3.6893930139033e-05,-7.2026717176824e-05,0.0031279161293802,0.0076128563981831,-146402571.60572,289798169.73684,-146402571.63541,289798169.69606,42,2,0.099252295018736,3.9270770772513e-06
0.72337302519723,-146791193.6605,290473243.88999,0.0030843359178185,3.7104473419759e-05,-7.2337302519723e-05,0.0031058534289883,0.0077135540365206,-146791193.64412,290473243.91578,-146791193.67352,290473243.87561,42,2,0.099242284997635,3.92685030428e-06
0.72645736111505,-147174562.00389,291137923.43958,0.0030633434445152,3.7314098947189e-05,-7.2645736111505e-05,0.0030843359178185,0.0078142393162606,-147174561.98764,291137923.46493,-147174562.01677,291137923.42535,42,2,0.099232273848055,3.9266260154846e-06
0.72952070455956,-147552803.11049,291792465.46568,0.0030428568568387,3.7522829912773e-05,-7.2952070455956e-05,0.0030633434445152,0.0079149125844215,-147552803.09438,291792465.49062,-147552803.12323,291792465.45162,42,2,0.099222261552298,3.9264041507808e-06
0.7325635614164,-147926038.84733,292437117.70272,0.0030228579397215,3.7730688660398e-05,-7.325635614164e-05,0.0030428568568387,0.0080155741740916,-147926038.83135,292437117.72725,-147926038.85993,292437117.68881,42,2,0.099212248093783,3.9261846522702e-06
0.73558641935612,-148294386.71454,293072118.9712,0.0030033293579164,3.793769672788e-05,-7.3558641935612e-05,0.0030228579397215,0.0081162244051606,-148294386.69868,293072118.99533,-148294386.727,293072118.95744,42,2,0.099202233456982,3.9259674641337e-06
0.73858974871404,-148657960.05581,293697699.60763,0.0029842546028406,3.8143874885921e-05,-7.3858974871404e-05,0.0030033293579164,0.0082168635850039,-148657960.04008,293697699.63137,-148657960.06815,293697699.59402,42,2,0.099192217627361,3.925752532531e-06
0.74157400331688,-149016868.25617,294314081.86858,0.0029656179432603,3.8349243174707e-05,-7.4157400331688e-05,0.0029842546028406,0.0083174920091226,-149016868.24056,294314081.89194,-149016868.26839,294314081.85512,42,2,0.099182200591324,3.9255398055062e-06
0.74453962126014,-149371216.92798,294921480.31063,0.0029474043794937,3.8553820938327e-05,-7.4453962126014e-05,0.0029656179432603,0.0084181099617445,-149371216.91249,294921480.33363,-149371216.94008,294921480.29731,42,2,0.099172182336161,3.9253292328994e-06
0.74748702563964,-149721108.08594,295520102.14794,0.0029295996008408,3.8757626857159e-05,-7.4748702563964e-05,0.0029474043794937,0.008518717716386,-149721108.07057,295520102.17058,-149721108.09793,295520102.13476,42,2,0.099162162850001,3.9251207662631e-06
0.75041662524048,-150066640.31201,296110147.58907,0.002912189945978,3.8960678978374e-05,-7.5041662524048e-05,0.0029295996008408,0.008619315536381,-150066640.29675,296110147.61135,-150066640.32388,296110147.57602,42,2,0.099152142121766,3.9249143587838e-06
0.75332881518645,-150407908.91078,296691810.15442,0.0028951623660751,3.9162994744686e-05,-7.5332881518645e-05,0.002912189945978,0.0087199036753764,-150407908.89563,296691810.17636,-150407908.92254,296691810.14151,42,2,0.099142120141129,3.9247099652078e-06
0.75622397755253,-150745006.05611,297265276.97576,0.0028785043904202,3.9364591021469e-05,-7.5622397755253e-05,0.0028951623660751,0.0088204823777986,-150745006.04107,297265276.99737,-150745006.06777,297265276.96298,42,2,0.099132096898474,3.9245075417715e-06
0.75910248194295,-151078020.9295,297830729.07883,0.0028622040943528,3.9565484122346e-05,-7.5910248194295e-05,0.0028785043904202,0.0089210518792922,-151078020.91457,297830729.10011,-151078020.94106,297830729.06618,42,2,0.099122072384857,3.9243070461353e-06
0.7619646860373,-151407039.85081,298388341.6504,0.0028462500693267,3.9765689833368e-05,-7.619646860373e-05,0.0028622040943528,0.0090216124071327,-151407039.83598,298388341.67136,-151407039.86226,298388341.63788,42,2,0.099112046591975,3.9241084373212e-06
0.76481093610663,-151732146.4018,298938284.29064,0.0028306313949366,3.9965223435859e-05,-7.6481093610663e-05,0.0028462500693267,0.0091221641806156,-151732146.38707,298938284.31129,-151732146.41316,298938284.27825,42,2,0.099102019512128,3.9239116756545e-06
0.76764156750157,-152053421.54307,299480721.25188,0.0028153376127604,4.0164099728029e-05,-7.6764156750157e-05,0.0028306313949366,0.0092227074114229,-152053421.52845,299480721.27222,-152053421.55433,299480721.2396,42,2,0.099091991138193,3.9237167227073e-06
0.77045690511433,-152370943.72465,300015811.66451,0.0028003587018801,4.0362333045421e-05,-7.7045690511433e-05,0.0028153376127604,0.0093232423039692,-152370943.71012,300015811.68455,-152370943.73581,300015811.65235,42,2,0.099081961463592,3.9235235412467e-06
0.77325726381621,-152684788.99075,300543709.75103,0.0027856850559556,4.0559937280278e-05,-7.7325726381621e-05,0.0028003587018801,0.0094237690557281,-152684788.97631,300543709.77079,-152684789.00182,300543709.73899,42,2,0.099071930482263,3.923332095184e-06
0.77604294887216,-152995031.0791,301064565.02883,0.0027713074617371,4.0756925899899e-05,-7.7604294887216e-05,0.0027856850559556,0.0095242878575407,-152995031.06476,301064565.0483,-152995031.09008,301064565.0169,42,2,0.09906189818864,3.923142349528e-06
0.7788142563339,-153301741.51508,301578522.50245,0.0027572170789122,4.0953311964037e-05,-7.788142563339e-05,0.0027713074617371,0.009624798893907,-153301741.50084,301578522.52164,-153301741.52597,301578522.49064,42,2,0.099051864577622,3.92295427034e-06
0.78157147341281,-153604989.70108,302085722.84607,0.0027434054211897,4.1149108141406e-05,-7.8157147341281e-05,0.0027572170789122,0.0097253023432615,-153604989.68693,302085722.86499,-153604989.71188,302085722.83437,42,2,0.099041829644554,3.9227678246912e-06
0.784314878834,-153904843.00126,302586302.57671,0.0027298643385338,4.1344326725354e-05,-7.84314878834e-05,0.0027434054211897,0.0098257983782345,-153904842.9872,302586302.59537,-153904843.01198,302586302.56512,42,2,0.099031793385205,3.9225829806222e-06
0.78704474317253,-154201366.82217,303080394.21873,0.0027165860004659,4.1538979648747e-05,-7.8704474317253e-05,0.0027298643385338,0.009926287165899,-154201366.8082,303080394.23713,-154201366.8328,303080394.20725,42,2,0.099021755795745,3.922399707105e-06
0.789761329173,-154494624.68927,303568126.46021,0.0027035628803602,4.173307849811e-05,-7.89761329173e-05,0.0027165860004659,0.010026768868005,-154494624.67539,303568126.47836,-154494624.69982,303568126.44884,42,2,0.099011716872731,3.9222179740061e-06
0.79246489205336,-154784678.31979,304049624.30165,0.0026907877406642,4.192663452708e-05,-7.9246489205336e-05,0.0027035628803602,0.010127243641199,-154784678.30599,304049624.31955,-154784678.33026,304049624.29039,42,2,0.099001676613082,3.922037752052e-06
0.79515567979402,-155071587.69197,304525009.19741,0.0026782536189806,4.2119658669199e-05,-7.9515567979402e-05,0.0026907877406642,0.010227711637241,-155071587.67826,304525009.21507,-155071587.70236,304525009.18625,42,2,0.098991635014065,3.9218590127964e-06
0.79783393341301,-155355411.11101,304994399.19038,0.0026659538149529,4.2312161550094e-05,-7.9783393341301e-05,0.0026782536189806,0.010328173003197,-155355411.09738,304994399.2078,-155355411.12132,304994399.17931,42,2,0.098981592073282,3.9216817285885e-06
0.80049988722796,-155636205.2719,305457909.04023,0.0026538818779,4.2504153499073e-05,-8.0049988722796e-05,0.0026659538149529,0.010428627881631,-155636205.25836,305457909.05741,-155636205.28214,305457909.02926,42,2,0.098971547788646,3.9215058725433e-06
0.80315376910586,-155914025.31925,305915650.34561,0.0026420315951494,4.2695644560178e-05,-8.0315376910586e-05,0.0026538818779,0.010529076410788,-155914025.30578,305915650.36257,-155914025.32941,305915650.33475,42,2,0.098961502158377,3.9213314185129e-06
0.80579580070101,-156188924.90435,306367731.66068,0.0026303969810263,4.2886644502715e-05,-8.0579580070101e-05,0.0026420315951494,0.010629518724762,-156188924.89095,306367731.67742,-156188924.91443,306367731.64991,42,2,0.098951455180979,3.9211583410596e-06
0.80842619768203,-156460956.23958,306814258.60618,0.0026189722664509,4.3077162831305e-05,-8.0842619768203e-05,0.0026303969810263,0.010729954953661,-156460956.22626,306814258.62269,-156460956.24958,306814258.5955,42,2,0.09894140685523,3.9209866154298e-06
0.81104516994848,-156730170.15038,307255333.97548,0.0026077518891094,4.3267208795466e-05,-8.1104516994848e-05,0.0026189722664509,0.010830385223762,-156730170.13714,307255333.99178,-156730170.16031,307255333.9649,42,2,0.098931357180172,3.9208162175292e-06
0.81365292183759,-156996616.12479,307691057.83584,0.0025967304841582,4.3456791398767e-05,-8.1365292183759e-05,0.0026077518891094,0.010930809657655,-156996616.11163,307691057.85193,-156996616.13466,307691057.82535,42,2,0.098921306155096,3.9206471238996e-06
0.81624965232175,-157260342.36084,308121527.62502,0.0025859028754312,4.3645919407566e-05,-8.1624965232175e-05,0.0025967304841582,0.01103122837439,-157260342.34776,308121527.6409,-157260342.37064,308121527.61462,42,2,0.098911253779532,3.9204793116957e-06
0.81883555519718,-157521395.81177,308546838.24372,0.002575264067115,4.3834601359356e-05,-8.1883555519718e-05,0.0025859028754312,0.011131641489604,-157521395.79875,308546838.25941,-157521395.82149,308546838.23341,42,2,0.098901200053238,3.9203127586643e-06
0.8214108192643,-157779822.22927,308967082.14386,0.0025648092358658,4.4022845570753e-05,-8.214108192643e-05,0.002575264067115,0.011232049115656,-157779822.21633,308967082.15935,-157779822.23893,308967082.13364,42,2,0.098891144976188,3.9201474431231e-06
0.82397562850016,-158035666.20492,309382349.41304,0.0025545337233387,4.4210660145124e-05,-8.2397562850016e-05,0.0025648092358658,0.011332451361742,-158035666.19205,309382349.42833,-158035666.21451,309382349.40291,42,2,0.098881088548568,3.9199833439414e-06
0.8265301622235,-158288971.2097,309792727.85532,0.0025444330291065,4.4398052979889e-05,-8.265301622235e-05,0.0025545337233387,0.011432848334015,-158288971.1969,309792727.87042,-158288971.21923,309792727.84527,42,2,0.098871030770759,3.919820440521e-06
0.82907459525261,-158539779.6319,310198303.06857,0.0025345028039422,4.458503177351e-05,-8.2907459525261e-05,0.0025444330291065,0.011533240135696,-158539779.61917,310198303.08349,-158539779.64136,310198303.05861,42,2,0.098860971643335,3.9196587127784e-06
0.83160909805655,-158788132.8134,310599158.51854,0.0025247388434444,4.4771604032182e-05,-8.3160909805655e-05,0.0025345028039422,0.011633626867177,-158788132.80074,310599158.53327,-158788132.8228,310599158.50865,42,2,0.09885091116705,3.9194981411274e-06
0.8341338369,-159034071.08441,310995375.60972,0.0025151370819853,4.495777707624e-05,-8.341338369e-05,0.0025247388434444,0.011734008626126,-159034071.07182,310995375.62427,-159034071.09375,310995375.59992,42,2,0.098840849342834,3.9193387064625e-06
0.83664897398198,-159277633.79678,311387033.75339,0.002505693586963,4.51435580463e-05,-8.3664897398198e-05,0.0025151370819853,0.011834385507581,-159277633.78426,311387033.76777,-159277633.80606,311387033.74367,42,2,0.098830786171781,3.9191803901432e-06
0.83915466756894,-159518859.35591,311774210.43274,0.002496404553338,4.5328953909148e-05,-8.3915466756894e-05,0.002505693586963,0.011934757604045,-159518859.34345,311774210.44694,-159518859.36513,311774210.42309,42,2,0.098820721655146,3.9190231739788e-06
0.84165107212228,-159757785.25138,312156981.26532,0.0024872662984404,4.551397146338e-05,-8.4165107212228e-05,0.002496404553338,0.012035125005572,-159757785.23898,312156981.27935,-159757785.26053,312156981.25575,42,2,0.098810655794336,3.9188670402136e-06
0.84413833842072,-159994448.08628,312535420.06304,0.0024782752570301,4.5698617344817e-05,-8.4413833842072e-05,0.0024872662984404,0.012135487799853,-159994448.07395,312535420.07691,-159994448.09538,312535420.05355,42,2,0.098800588590903,3.9187119715133e-06
0.84661661367775,-160228883.60546,312909598.88967,0.0024694279765966,4.5882898031706e-05,-8.4661661367775e-05,0.0024782752570301,0.012235846072294,-160228883.59319,312909598.90338,-160228883.6145,312909598.88026,42,2,0.098790520046539,3.9185579509513e-06
0.84908604165435,-160461126.72254,313279588.11607,0.0024607211128844,4.6066819849701e-05,-8.4908604165435e-05,0.0024694279765966,0.012336199906102,-160461126.71033,313279588.12961,-160461126.73152,313279588.10673,42,2,0.09878045016307,3.918404961996e-06
0.85154676276723,-160691211.5459,313645456.47319,0.002452151425631,4.6250388976656e-05,-8.5154676276723e-05,0.0024607211128844,0.012436549382348,-160691211.53376,313645456.48658,-160691211.55483,313645456.46393,42,2,0.098770378942449,3.9182529884981e-06
0.85399891419287,-160919171.40368,314007271.10309,0.0024437157745107,4.6433611447226e-05,-8.5399891419287e-05,0.002452151425631,0.012536894580047,-160919171.3916,314007271.11633,-160919171.41256,314007271.09391,42,2,0.098760306386753,3.9181020146793e-06
0.85644262996738,-161145038.86775,314365097.60785,0.0024354111152613,4.6616493157287e-05,-8.5644262996738e-05,0.0024437157745107,0.012637235576222,-161145038.85573,314365097.62093,-161145038.87657,314365097.59873,42,2,0.098750232498175,3.9179520251204e-06
0.85887804108264,-161368845.77677,314719000.09664,0.0024272344959957,4.6799039868187e-05,-8.5887804108264e-05,0.0024354111152613,0.012737572445972,-161368845.76481,314719000.10957,-161368845.78554,314719000.08759,42,2,0.09874015727902,3.9178030047504e-06
0.86130527557863,-161590623.25838,315069041.23101,0.0024191830536828,4.6981257210833e-05,-8.6130527557863e-05,0.0024272344959957,0.012837905262533,-161590623.24648,315069041.24379,-161590623.2671,315069041.22203,42,2,0.098730080731701,3.9176549388363e-06
0.86372445863232,-161810401.75056,315415282.26841,0.002411254010789,4.7163150689623e-05,-8.6372445863232e-05,0.0024191830536828,0.012938234097337,-161810401.73872,315415282.28104,-161810401.75922,315415282.2595,42,2,0.098720002858735,3.9175078129723e-06
0.8661357126431,-162028211.02212,315757783.1041,0.0024034446720719,4.7344725686223e-05,-8.661357126431e-05,0.002411254010789,0.013038559020076,-162028211.01034,315757783.11659,-162028211.03073,315757783.09526,42,2,0.098709923662737,3.9173616130709e-06
0.86853915731518,-162244080.1925,316096602.31147,0.0023957524215196,4.7525987463215e-05,-8.6853915731518e-05,0.0024034446720719,0.013138880098749,-162244080.18077,316096602.32382,-162244080.20106,316096602.3027,42,2,0.098699843146416,3.9172163253525e-06
0.8709349097367,-162458037.75078,316431797.18086,0.0023881747194253,4.7706941167596e-05,-8.709349097367e-05,0.0023957524215196,0.013239197399723,-162458037.73911,316431797.19308,-162458037.75929,316431797.17215,42,2,0.098689761312572,3.9170719363372e-06
0.87332308445612,-162670111.57404,316763423.75697,0.0023807090995927,4.7887591834156e-05,-8.7332308445612e-05,0.0023881747194253,0.013339510987779,-162670111.56243,316763423.76906,-162670111.5825,316763423.74834,42,2,0.098679678164092,3.9169284328356e-06
0.87570379355571,-162880328.94498,317091536.8749,0.0023733531666633,4.8067944388731e-05,-8.7570379355571e-05,0.0023807090995927,0.013439820926165,-162880328.93342,317091536.88686,-162880328.95339,317091536.86633,42,2,0.098669593703947,3.9167858019406e-06
0.87807714672238,-163088716.56895,317416190.19482,0.0023661045935624,4.8248003651331e-05,-8.7807714672238e-05,0.0023733531666633,0.01354012727664,-163088716.55745,317416190.20665,-163088716.57732,317416190.18632,42,2,0.098659507935185,3.9166440310194e-06
0.88044325131594,-163295300.59039,317737436.23551,0.0023589611190528,4.8427774339168e-05,-8.8044325131594e-05,0.0023661045935624,0.013640430099523,-163295300.57894,317737436.2472,-163295300.59871,317737436.22706,42,2,0.098649420860934,3.9165031077051e-06
0.88280221243499,-163500106.6086,318055326.40654,0.0023519205453969,4.8607261069562e-05,-8.8280221243499e-05,0.0023589611190528,0.013740729453736,-163500106.5972,318055326.41811,-163500106.61687,318055326.39816,42,2,0.098639332484393,3.9163630198902e-06
0.88515413298039,-163703159.69302,318369911.03951,0.002344980736116,4.8786468362753e-05,-8.8515413298039e-05,0.0023519205453969,0.013841025396843,-163703159.68167,318369911.05096,-163703159.70124,318369911.03119,42,2,0.09862924280883,3.9162237557183e-06
0.88749911371651,-163904484.39796,318681239.41798,0.0023381396138464,4.896540064461e-05,-8.8749911371651e-05,0.002344980736116,0.013941317985096,-163904484.38667,318681239.4293,-163904484.40614,318681239.40972,42,2,0.098619151837583,3.9160853035777e-06
0.88983725333035,-164104104.77682,318989359.80648,0.0023313951582846,4.9144062249245e-05,-8.8983725333035e-05,0.0023381396138464,0.014041607273471,-164104104.76558,318989359.81769,-164104104.78495,318989359.79828,42,2,0.098609059574053,3.9159476520948e-06
0.89216864848864,-164302044.39574,319294319.47853,0.0023247454042188,4.9322457421535e-05,-8.9216864848864e-05,0.0023313951582846,0.014141893315703,-164302044.38456,319294319.48962,-164302044.40383,319294319.47039,42,2,0.098598966021701,3.9158107901269e-06
0.89449339389286,-164498326.34692,319596164.74356,0.002318188439642,4.9500590319563e-05,-8.9449339389286e-05,0.0023247454042188,0.01424217616433,-164498326.33579,319596164.75454,-164498326.35497,319596164.73548,42,2,0.098588871184051,3.9156747067564e-06
0.8968115823325,-164692973.26137,319894940.97309,0.0023117224039426,4.9678465016968e-05,-8.968115823325e-05,0.002318188439642,0.014342455870721,-164692973.25029,319894940.98394,-164692973.26937,319894940.96506,42,2,0.098578775064679,3.9155393912848e-06
0.89912330473644,-164886007.32125,320190692.62583,0.0023053454861691,4.9856085505217e-05,-8.9912330473644e-05,0.0023117224039426,0.014442732485112,-164886007.31022,320190692.63658,-164886007.32921,320190692.61786,42,2,0.098568677667218,3.9154048332264e-06
0.90142865022261,-165077450.27185,320483463.27212,0.0022990559233652,5.0033455695805e-05,-9.0142865022261e-05,0.0023053454861691,0.01454300605664,-165077450.26087,320483463.28276,-165077450.27977,320483463.26421,42,2,0.098558578995353,3.9152710223031e-06
0.90372770614597,-165267323.43311,320773295.61741,0.0022928519989718,5.0210579422373e-05,-9.0372770614597e-05,0.0022990559233652,0.014643276633372,-165267323.42217,320773295.62793,-165267323.44098,320773295.60955,42,2,0.098548479052817,3.9151379484383e-06
0.90602055814495,-165455647.71075,321060231.525,0.0022867320412934,5.0387460442764e-05,-9.0602055814495e-05,0.0022928519989718,0.014743544262337,-165455647.69986,321060231.53542,-165455647.71858,321060231.5172,42,2,0.098538377843392,3.9150056017525e-06
0.90830729018624,-165642443.6071,321344312.03809,0.002280694422025,5.0564102441005e-05,-9.0830729018624e-05,0.0022867320412934,0.014843808989555,-165642443.59626,321344312.04841,-165642443.61489,321344312.03035,42,2,0.098528275370905,3.9148739725572e-06
0.91058798460826,-165827731.23151,321625577.40102,0.0022747375548365,5.0740509029224e-05,-9.1058798460826e-05,0.002280694422025,0.014944070860065,-165827731.22072,321625577.41123,-165827731.23926,321625577.39333,42,2,0.098518171639227,3.9147430513507e-06
0.9128627221631,-166011530.31046,321904067.07984,0.0022688598940163,5.091668374951e-05,-9.128627221631e-05,0.0022747375548365,0.015044329917949,-166011530.29972,321904067.08994,-166011530.31818,321904067.0722,42,2,0.098508066652269,3.9146128288127e-06
0.91513158205712,-166193860.19731,322179819.78227,0.0022630599331618,5.1092630075707e-05,-9.1513158205712e-05,0.0022688598940163,0.015144586206367,-166193860.18662,322179819.79227,-166193860.20499,322179819.77468,42,2,0.098497960413984,3.9144832958001e-06
0.91739464199028,-166374739.88177,322452873.47694,0.0022573362039246,5.1268351415151e-05,-9.1739464199028e-05,0.0022630599331618,0.015244839767572,-166374739.87112,322452873.48685,-166374739.8894,322452873.46941,42,2,0.098487852928363,3.9143544433424e-06
0.9196519781942,-166554187.99902,322723265.4121,0.0022516872748031,5.1443851110356e-05,-9.196519781942e-05,0.0022573362039246,0.015345090642941,-166554187.98842,322723265.42191,-166554188.00662,322723265.40462,42,2,0.098477744199433,3.9142262626373e-06
0.92190366546901,-166732222.83865,322991032.13361,0.0022461117499805,5.1619132440638e-05,-9.2190366546901e-05,0.0022516872748031,0.015445338872997,-166732222.8281,322991032.14333,-166732222.84621,322991032.12619,42,2,0.098467634231254,3.9140987450463e-06
0.92414977721899,-166908862.35315,323256209.50254,0.0022406082682081,5.1794198623698e-05,-9.2414977721899e-05,0.0022461117499805,0.015545584497433,-166908862.34264,323256209.51216,-166908862.36067,323256209.49517,42,2,0.098457523027923,3.9139718820911e-06
0.9263903854872,-167084124.1663,323518832.71205,0.0022351755017288,5.196905281715e-05,-9.263903854872e-05,0.0022406082682081,0.015645827555131,-167084124.15583,323518832.72158,-167084124.17378,323518832.70472,42,2,0.098447410593566,3.913845665449e-06
0.92862556098892,-167258025.58117,323778936.30384,0.0022298121552428,5.2143698119998e-05,-9.2862556098892e-05,0.0022351755017288,0.015746068084188,-167258025.57076,323778936.31327,-167258025.58862,323778936.29656,42,2,0.098437296932342,3.9137200869498e-06
0.93085537314417,-167430583.588,324036554.18408,0.0022245169649109,5.2318137574072e-05,-9.3085537314417e-05,0.0022298121552428,0.015846306121931,-167430583.57763,324036554.19342,-167430583.59541,324036554.17685,42,2,0.098427182048435,3.9135951385714e-06
0.93307989010908,-167601814.87169,324291719.63883,0.0022192886973939,5.2492374165424e-05,-9.3307989010908e-05,0.0022245169649109,0.015946541704944,-167601814.86136,324291719.64808,-167601814.87907,324291719.63164,42,2,0.098417065946062,3.9134708124367e-06
0.93529917880647,-167771735.8192,324544465.349,0.0022141261489285,5.2666410825668e-05,-9.3529917880647e-05,0.0022192886973939,0.016046774869081,-167771735.80892,324544465.35817,-167771735.82654,324544465.34187,42,2,0.098406948629462,3.9133471008099e-06
0.9375133049554,-167940362.52664,324794823.40488,0.0022090281444365,5.2840250433296e-05,-9.375133049554e-05,0.0022141261489285,0.016147005649488,-167940362.5164,324794823.41396,-167940362.53395,324794823.39779,42,2,0.098396830102901,3.9132239960931e-06
0.93972233309984,-168107710.80618,325042825.32017,0.0022039935366658,5.3013895814939e-05,-9.3972233309984e-05,0.0022090281444365,0.016247234080622,-168107710.79598,325042825.32916,-168107710.81345,325042825.31313,42,2,0.098386710370671,3.9131014908232e-06
0.9419263266365,-168273796.19275,325288502.04567,0.0021990212053628,5.3187349746602e-05,-9.419263266365e-05,0.0022039935366658,0.016347460196267,-168273796.1826,325288502.05458,-168273796.19999,325288502.03868,42,2,0.098376589437082,3.9129795776683e-06
0.94412534784187,-168438633.95054,325531883.9825,0.0021941100564744,5.3360614954855e-05,-9.4412534784187e-05,0.0021990212053628,0.016447684029549,-168438633.94042,325531883.99132,-168438633.95774,325531883.97555,42,2,0.098366467306471,3.9128582494253e-06
0.94631945789834,-168602239.07928,325773000.99496,0.0021892590213778,5.3533694117993e-05,-9.4631945789834e-05,0.0021941100564744,0.016547905612958,-168602239.0692,325773001.0037,-168602239.08644,325773000.98806,42,2,0.098356343983193,3.9127374990161e-06
0.94850871691972,-168764626.32041,326011882.42301,0.0021844670561388,5.3706589867158e-05,-9.4850871691972e-05,0.0021892590213778,0.016648124978359,-168764626.31038,326011882.43167,-168764626.32754,326011882.41615,42,2,0.098346219471624,3.9126173194853e-06
0.95069318397586,-168925810.16298,326248557.09438,0.0021797331407947,5.3879304787431e-05,-9.5069318397586e-05,0.0021844670561388,0.01674834215701,-168925810.15299,326248557.10297,-168925810.17008,326248557.08757,42,2,0.098336093776156,3.9124977039973e-06
0.95287291711665,-169085804.84946,326483053.33633,0.0021750562786635,5.4051841418894e-05,-9.5287291711665e-05,0.0021797331407947,0.016848557179575,-169085804.83951,326483053.34484,-169085804.85652,326483053.32957,42,2,0.098325966901203,3.9123786458331e-06
0.95504797339531,-169244624.3813,326715398.98708,0.0021704354956756,5.4224202257655e-05,-9.5504797339532e-05,0.0021750562786635,0.016948770076143,-169244624.3714,326715398.9955,-169244624.38834,326715398.98035,42,2,0.098315838851192,3.9122601383882e-06
0.95721840889099,-169402282.52443,326945621.40687,0.0021658698397304,5.4396389756849e-05,-9.5721840889099e-05,0.0021704354956756,0.017048980876235,-169402282.51456,326945621.41522,-169402282.53143,326945621.40019,42,2,0.098305709630569,3.9121421751697e-06
0.95938427873072,-169558792.81448,327173747.4888,0.0021613583800729,5.4568406327613e-05,-9.5938427873072e-05,0.0021658698397304,0.017149189608826,-169558792.80465,327173747.49707,-169558792.82145,327173747.48216,42,2,0.098295579243794,3.912024749794e-06
0.96154563711079,-169714168.56199,327399803.66924,0.0021569002066941,5.4740254340021e-05,-9.6154563711079e-05,0.0021613583800729,0.017249396302351,-169714168.55221,327399803.67744,-169714168.56893,327399803.66264,42,2,0.098285447695341,3.9119078559839e-06
0.96370253731749,-169868422.85738,327623815.93807,0.0021524944297489,5.491193612401e-05,-9.6370253731749e-05,0.0021569002066941,0.017349600984722,-169868422.84763,327623815.9462,-169868422.86428,327623815.93151,42,2,0.098275314989698,3.9117914875668e-06
0.96585503174724,-170021568.57577,327845809.84852,0.0021481401789954,5.5083453970264e-05,-9.6585503174724e-05,0.0021524944297489,0.01744980368334,-170021568.56606,327845809.85657,-170021568.58265,327845809.842,42,2,0.098265181131365,3.9116756384723e-06
0.96800317192623,-170173618.38177,328065810.52681,0.0021438366032531,5.5254810131085e-05,-9.6800317192623e-05,0.0021481401789954,0.017550004425105,-170173618.3721,328065810.53479,-170173618.38861,328065810.52033,42,2,0.098255046124855,3.9115603027293e-06
0.97014700852949,-170324584.73401,328283842.68152,0.0021395828698779,5.5426006821234e-05,-9.7014700852949e-05,0.0021438366032531,0.017650203236431,-170324584.72438,328283842.68943,-170324584.74083,328283842.67508,42,2,0.098244909974692,3.9114454744648e-06
0.97228659139936,-170474479.88965,328499930.61266,0.0021353781642553,5.5597046218748e-05,-9.7228659139936e-05,0.0021395828698779,0.017750400143255,-170474479.88006,328499930.6205,-170474479.89644,328499930.60627,42,2,0.09823477268541,3.9113311479011e-06
0.97442196956362,-170623315.9087,328714098.22055,0.0021312216893105,5.5767930465741e-05,-9.7442196956362e-05,0.0021353781642553,0.017850595171049,-170623315.89915,328714098.22832,-170623315.91546,328714098.21419,42,2,0.098224634261556,3.911217317354e-06
0.97655319125293,-170771104.65824,328926369.01438,0.0021271126650341,5.5938661669174e-05,-9.7655319125293e-05,0.0021312216893105,0.017950788344831,-170771104.64872,328926369.02208,-170771104.66497,328926369.00806,42,2,0.098214494707682,3.9111039772305e-06
0.97868030391796,-170917857.81654,329136766.12062,0.0021230503280229,5.6109241901615e-05,-9.7868030391796e-05,0.0021271126650341,0.018050979689175,-170917857.80707,329136766.12826,-170917857.82324,329136766.11435,42,2,0.098204354028351,3.9109911220275e-06
0.98080335424599,-171063586.87709,329345312.29118,0.0021190339310365,5.6279673201967e-05,-9.8080335424599e-05,0.0021230503280229,0.018151169228221,-171063586.86765,329345312.29875,-171063586.88376,329345312.28494,42,2,0.098194212228134,3.910878746329e-06
0.98292238817702,-171208303.15243,329552029.9113,0.0021150627425675,5.6449957576186e-05,-9.8292238817702e-05,0.0021190339310365,0.018251356985685,-171208303.14303,329552029.91881,-171208303.15907,329552029.9051,42,2,0.098184069311609,3.9107668448052e-06
0.98503745091959,-171352017.77801,329756941.00731,0.0021111360464254,5.6620096997975e-05,-9.8503745091959e-05,0.0021150627425675,0.018351542984871,-171352017.76864,329756941.01475,-171352017.78462,329756941.00114,42,2,0.098173925283363,3.9106554122098e-06
0.98714858696602,-171494741.71583,329960067.25411,0.0021072531413343,5.6790093409461e-05,-9.8714858696602e-05,0.0021111360464254,0.018451727248676,-171494741.7065,329960067.26149,-171494741.72241,329960067.24799,42,2,0.098163780147987,3.910544443379e-06
0.98925584010735,-171636485.75806,330161429.98255,0.0021034133405429,5.6959948721852e-05,-9.8925584010735e-05,0.0021072531413343,0.018551909799601,-171636485.74877,330161429.98986,-171636485.76462,330161429.97646,42,2,0.098153633910079,3.9104339332292e-06
0.99135925344789,-171777260.53054,330361050.18648,0.0020996159714467,5.7129664816084e-05,-9.9135925344789e-05,0.0021034133405429,0.018652090659761,-171777260.52128,330361050.19374,-171777260.53707,330361050.18043,42,2,0.098143486574241,3.9103238767559e-06
0.99345886941934,-171917076.49618,330558948.52978,0.0020958603752221,5.7299243543439e-05,-9.9345886941934e-05,0.0020996159714467,0.018752269850894,-171917076.48695,330558948.53697,-171917076.50268,330558948.52376,42,2,0.098133338145084,3.9102142690316e-06
0.99555472979456,-172055943.95828,330755145.35303,0.0020921459064728,5.746868672616e-05,-9.9555472979456e-05,0.0020958603752221,0.018852447394365,-172055943.9491,330755145.36016,-172055943.96476,330755145.34705,42,2,0.098123188627218,3.9101051052044e-06
0.99764687570103,-172193873.06379,330949660.68018,0.0020884719328851,5.7637996158039e-05,-9.9764687570103e-05,0.0020921459064728,0.018952623311181,-172193873.05464,330949660.68725,-172193873.07024,330949660.67423,42,2,0.098113038025262,3.9099963804965e-06
0.99973534763392,-172330873.80644,331142514.22493,0.0020848378348959,5.7807173605e-05,-9.9973534763392e-05,0.0020884719328851,0.019052797621991,-172330873.79733,331142514.23195,-172330873.81286,331142514.21903,42,2,0.098102886343836,3.9098880902028e-06
1.0018201854688,-172013941.67386,330408106.94556,0.0020989001076254,5.7891126513643e-05,-0.0001,0.0020848378348959,0.019152127639027,-172013941.66695,330408106.9537,-172013941.67913,330408106.93523,43,2,0.098092817207219,3.9099931403756e-06
1.0039190855764,-171630990.60771,329539258.95189,0.0021155159960021,5.7962741221398e-05,-0.0001,0.0020989001076254,0.019251342209429,-171630990.6008,329539258.96004,-171630990.61285,329539258.94159,42,2,0.098082756715267,3.9101292083203e-06
1.0060346015724,-171247906.23043,328670626.83082,0.0021322793630456,5.8034384848443e-05,-0.0001,0.0021155159960021,0.019350556038173,-171247906.22356,328670626.83892,-171247906.23556,328670626.82057,42,2,0.098072693264286,3.9102653312117e-06
1.0081668809355,-170864692.69142,327802220.90401,0.0021492161179039,5.8106056621147e-05,-0.0001,0.0021322793630456,0.019449767994796,-170864692.68458,327802220.91207,-170864692.69653,327802220.89382,42,2,0.098062626962995,3.9104015075798e-06
1.0103160970534,-170481349.76733,326934041.57335,0.0021663282326973,5.8177756584293e-05,-0.0001,0.0021492161179039,0.019548978081479,-170481349.76053,326934041.58137,-170481349.77243,326934041.56321,42,2,0.098052557805543,3.9105377375098e-06
1.0124824252861,-170097877.27736,326066089.33988,0.0021836179498851,5.8249484774708e-05,-0.0001,0.0021663282326973,0.019648186289233,-170097877.27059,326066089.34786,-170097877.28244,326066089.3298,42,2,0.098042485787189,3.9106740210716e-06
1.014666043236,-169714275.03996,325198364.70559,0.0022010875436488,5.8321241229367e-05,-0.0001,0.0021836179498851,0.019747392609116,-169714275.03323,325198364.71353,-169714275.04503,325198364.69557,42,2,0.098032410903175,3.9108103583355e-06
1.0168671307796,-169330542.87323,324330868.1744,0.0022187393228639,5.8393025985316e-05,-0.0001,0.0022010875436488,0.019846597032121,-169330542.86654,324330868.18229,-169330542.87831,324330868.16442,41,2,0.098022333148734,3.9109467493718e-06
1.0190858701025,-168946680.59494,323463600.25215,0.0022365756316906,5.846483907967e-05,-0.0001,0.0022187393228639,0.019945799549174,-168946680.58828,323463600.25999,-168946680.6,323463600.24223,41,2,0.098012252519091,3.911083194251e-06
1.0213224457342,-168562688.0225,322596561.44664,0.0022545988501987,5.8536680549614e-05,-0.0001,0.0022365756316906,0.020045000151137,-168562688.01588,322596561.45444,-168562688.02755,322596561.43677,41,2,0.098002169009459,3.9112196930439e-06
1.0235770445844,-168178564.97302,321729752.2676,0.0022728113950077,5.8608550432407e-05,-0.0001,0.0022545988501987,0.020144198828807,-168178564.96643,321729752.27536,-168178564.97804,321729752.25779,41,2,0.097992082615047,3.9113562458212e-06
1.0258498559794,-167794311.26323,320863173.22676,0.0022912157199377,5.8680448765375e-05,-0.0001,0.0022728113950077,0.020243395572911,-167794311.25667,320863173.23447,-167794311.26824,320863173.21699,41,2,0.097981993331052,3.9114928526539e-06
1.0281410716993,-167409926.70954,319996824.83778,0.0023098143166746,5.8752375585915e-05,-0.0001,0.0022912157199377,0.02034259037411,-167409926.70301,319996824.84545,-167409926.71453,319996824.82807,41,2,0.097971901152662,3.9116295136129e-06
1.030450886016,-167025411.12802,319130707.61636,0.0023286097154483,5.8824330931496e-05,-0.0001,0.0023098143166746,0.020441783222998,-167025411.12153,319130707.62398,-167025411.133,319130707.6067,41,2,0.09796180607506,3.9117662287695e-06
1.0327794957314,-166640764.33441,318264822.08015,0.0023476044857253,5.8896314839655e-05,-0.0001,0.0023286097154483,0.020540974110099,-166640764.32796,318264822.08773,-166640764.33938,318264822.07055,41,2,0.097951708093416,3.911902998195e-06
1.0351271002172,-166255986.14411,317399168.74886,0.0023668012369151,5.8968327348002e-05,-0.0001,0.0023476044857253,0.020640163025867,-166255986.13768,317399168.75639,-166255986.14905,317399168.7393,41,2,0.097941607202895,3.9120398219609e-06
1.0374939014541,-165871076.37216,316533748.14418,0.0023862026190911,5.9040368494215e-05,-0.0001,0.0023668012369151,0.020739349960687,-165871076.36577,316533748.15167,-165871076.37709,316533748.13468,41,2,0.097931503398651,3.9121767001387e-06
1.0398801040732,-165486034.83329,315668560.78987,0.0024058113237265,5.9112438316045e-05,-0.0001,0.0023862026190911,0.020838534904872,-165486034.82693,315668560.79732,-165486034.8382,315668560.78042,41,2,0.09792139667583,3.9123136328001e-06
1.0422859153969,-165100861.34188,314803607.21172,0.002425630084445,5.918453685131e-05,-0.0001,0.0024058113237265,0.020937717848665,-165100861.33555,314803607.21912,-165100861.34678,314803607.20232,41,2,0.097911287029571,3.9124506200172e-06
1.0447115454813,-164715555.71198,313938887.93758,0.0024456616777875,5.9256664137902e-05,-0.0001,0.002425630084445,0.021036898782235,-164715555.70569,313938887.94494,-164715555.71686,313938887.92823,41,2,0.097901174455002,3.9125876618617e-06
1.0471572071591,-164330117.75731,313074403.49739,0.0024659089239948,5.932882021378e-05,-0.0001,0.0024456616777875,0.021136077695679,-164330117.75105,313074403.50471,-164330117.76217,313074403.48809,41,2,0.097891058947245,3.9127247584058e-06
1.0496231160831,-163944547.29123,312210154.42315,0.0024863746878057,5.9401005116976e-05,-0.0001,0.0024659089239948,0.021235254579019,-163944547.285,312210154.43043,-163944547.29608,312210154.41391,41,2,0.097880940501411,3.9128619097219e-06
1.0521094907709,-163558844.12679,311346141.24899,0.0025070618792727,5.9473218885589e-05,-0.0001,0.0024863746878057,0.021334429422205,-163558844.1206,311346141.25623,-163558844.13163,311346141.2398,41,2,0.097870819112605,3.9129991158823e-06
1.0546165526502,-163173008.07671,310482364.51113,0.0025279734545938,5.9545461557793e-05,-0.0001,0.0025070618792727,0.02143360221511,-163173008.07055,310482364.51832,-163173008.08153,310482364.50198,41,2,0.097860694775923,3.9131363769595e-06
1.0571445261048,-162787038.95335,309618824.74791,0.0025491124169627,5.9617733171827e-05,-0.0001,0.0025279734545938,0.021532772947531,-162787038.94722,309618824.75506,-162787038.95815,309618824.73881,41,2,0.097850567486451,3.9132736930261e-06
1.0596936385218,-162400936.56875,308755522.49982,0.0025704818174366,5.9690033766003e-05,-0.0001,0.0025491124169627,0.021631941609188,-162400936.56265,308755522.50693,-162400936.57354,308755522.49077,41,2,0.097840437239269,3.9134110641551e-06
1.0622641203392,-162014700.73463,307892458.30949,0.0025920847558209,5.9762363378702e-05,-0.0001,0.0025704818174366,0.021731108189725,-162014700.72856,307892458.31656,-162014700.7394,307892458.30049,41,2,0.097830304029447,3.9135484904192e-06
1.064856205095,-161628331.26235,307029632.72173,0.0026139243815749,5.9834722048376e-05,-0.0001,0.0025920847558209,0.021830272678706,-161628331.25632,307029632.72876,-161628331.26711,307029632.71278,41,2,0.097820167852048,3.9136859718916e-06
1.0674701294766,-161241827.96298,306167046.2835,0.0026360038947349,5.9907109813546e-05,-0.0001,0.0026139243815749,0.021929435065617,-161241827.95697,306167046.29049,-161241827.96772,306167046.27461,41,2,0.097810028702126,3.9138235086454e-06
1.0701061333713,-160855190.64721,305304699.54398,0.0026583265468571,5.9979526712803e-05,-0.0001,0.0026360038947349,0.022028595339865,-160855190.64123,305304699.55093,-160855190.65193,305304699.53513,41,2,0.097799886574727,3.913961100754e-06
1.0727644599182,-160468419.12545,304442593.05453,0.0026808956419818,6.0051972784807e-05,-0.0001,0.0026583265468571,0.022127753490773,-160468419.11948,304442593.06144,-160468419.13015,304442593.04574,41,2,0.097789741464889,3.9140987482908e-06
1.0754453555602,-160081513.20774,303580727.36874,0.0027037145376159,6.012444806829e-05,-0.0001,0.0026808956419818,0.022226909507586,-160081513.20179,303580727.37561,-160081513.21243,303580727.36,41,2,0.097779593367642,3.9142364513294e-06
1.0781490700978,-159694472.70381,302719103.04243,0.0027267866457389,6.0196952602052e-05,-0.0001,0.0027037145376159,0.022326063379465,-159694472.69788,302719103.04925,-159694472.70848,302719103.03373,41,2,0.097769442278008,3.9143742099436e-06
1.0808758567435,-159307297.42306,301857720.63365,0.0027501154338285,6.0269486424961e-05,-0.0001,0.0027267866457389,0.022425215095488,-159307297.41716,301857720.64044,-159307297.42772,301857720.62501,41,2,0.097759288191,3.9145120242071e-06
1.0836259721774,-158919987.17458,300996580.70274,0.0027737044259091,6.0342049575957e-05,-0.0001,0.0027501154338285,0.022524364644649,-158919987.16869,300996580.70949,-158919987.17922,300996580.69415,41,2,0.097749131101625,3.914649894194e-06
1.0863996766033,-158532541.7671,300135683.81229,0.0027975572036229,6.0414642094049e-05,-0.0001,0.0027737044259091,0.022623512015856,-158532541.76124,300135683.81899,-158532541.77173,300135683.80374,41,2,0.09773897100488,3.9147878199784e-06
1.0891972338069,-158144961.00906,299275030.52718,0.0028216774073238,6.0487264018313e-05,-0.0001,0.0027975572036229,0.022722657197933,-158144961.00321,299275030.53384,-158144961.01367,299275030.51868,41,2,0.097728807895754,3.9149258016345e-06
1.0920189112142,-157757244.70855,298414621.41459,0.0028460687371953,6.0559915387896e-05,-0.0001,0.0028216774073238,0.022821800179617,-157757244.70272,298414621.42121,-157757244.71315,298414621.40614,41,2,0.097718641769232,3.9150638392367e-06
1.0948649799514,-157369392.67335,297554457.04403,0.0028707349543924,6.0632596242015e-05,-0.0001,0.0028460687371953,0.022920940949556,-157369392.66754,297554457.05062,-157369392.67793,297554457.03563,41,2,0.097708472620286,3.9152019328595e-06
1.0977357149058,-156981404.71092,296694537.98734,0.0028956798822081,6.0705306619953e-05,-0.0001,0.0028707349543924,0.02302007949631,-156981404.70513,296694537.99388,-156981404.71549,296694537.97898,41,2,0.097698300443883,3.9153400825776e-06
1.100631394788,-156593280.6284,295834864.81869,0.0029209074072663,6.0778046561064e-05,-0.0001,0.0028956798822081,0.023119215808351,-156593280.62263,295834864.82519,-156593280.63294,295834864.81038,41,2,0.097688125234983,3.9154782884657e-06
1.1035523021953,-156205020.23259,294975438.11462,0.00294642148074,6.0850816104769e-05,-0.0001,0.0029209074072663,0.023218349874059,-156205020.22684,294975438.12109,-156205020.23712,294975438.10636,41,2,0.097677946988537,3.9156165505987e-06
1.106498723676,-155816623.32999,294116258.45406,0.002972226119596,6.0923615290559e-05,-0.0001,0.00294642148074,0.023317481681723,-155816623.32426,294116258.46049,-155816623.33451,294116258.44585,41,2,0.097667765699489,3.9157548690517e-06
1.1094709497956,-155428089.7268,293257326.41831,0.0029983254078678,6.0996444157992e-05,-0.0001,0.002972226119596,0.023416611219541,-155428089.72108,293257326.4247,-155428089.7313,293257326.41015,41,2,0.097657581362775,3.9158932438999e-06
1.1124692752035,-155039419.22886,292398642.5911,0.0030247234979558,6.1069302746694e-05,-0.0001,0.0029983254078678,0.023515738475614,-155039419.22317,292398642.59745,-155039419.23335,292398642.58298,41,2,0.097647393973323,3.9160316752184e-06
1.1154939987014,-154650611.64173,291540207.55856,0.0030514246119567,6.1142191096362e-05,-0.0001,0.0030247234979558,0.023614863437954,-154650611.63606,291540207.56487,-154650611.6462,291540207.55049,41,2,0.097637203526055,3.9161701630828e-06
1.1185454233134,-154261666.77065,290682021.90927,0.0030784330430227,6.1215109246758e-05,-0.0001,0.0030514246119567,0.023713986094474,-154261666.76499,290682021.91554,-154261666.7751,290682021.90125,41,2,0.097627010015886,3.9163087075685e-06
1.1216238563564,-153872584.42053,289824086.23427,0.0031057531567495,6.128805723771e-05,-0.0001,0.0030784330430227,0.023813106432991,-153872584.4149,289824086.24051,-153872584.42497,289824086.2263,41,2,0.097616813437722,3.9164473087513e-06
1.1247296095132,-153483364.396,288966401.12707,0.0031333893925966,6.1361035109119e-05,-0.0001,0.0031057531567495,0.023912224441227,-153483364.39038,288966401.13326,-153483364.40042,288966401.11914,41,2,0.097606613786462,3.916585966707e-06
1.1278629989058,-153094006.50134,288108967.18365,0.0031613462653394,6.1434042900948e-05,-0.0001,0.0031333893925966,0.024011340106803,-153094006.49575,288108967.1898,-153094006.50575,288108967.17576,41,2,0.097596411056999,3.9167246815115e-06
1.1310243451711,-152704510.54057,287251785.0025,0.0031896283665523,6.1507080653229e-05,-0.0001,0.0031613462653394,0.024110453417242,-152704510.53499,287251785.00862,-152704510.54496,287251784.99466,41,2,0.097586205244219,3.9168634532408e-06
1.1342139735376,-152314876.31736,286394855.18465,0.0032182403661273,6.1580148406063e-05,-0.0001,0.0031896283665523,0.024209564359967,-152314876.3118,286394855.19073,-152314876.32174,286394855.17686,41,2,0.097575996342999,3.9170022819712e-06
1.1374322139038,-151925103.6351,285538178.33364,0.0032471870138247,6.1653246199614e-05,-0.0001,0.0032182403661273,0.024308672922297,-151925103.62956,285538178.33968,-151925103.63946,285538178.32589,41,2,0.097565784348212,3.917141167779e-06
1.1406794009176,-151535192.29687,284681755.05558,0.0032764731408602,6.1726374074115e-05,-0.0001,0.0032471870138247,0.024407779091451,-151535192.29135,284681755.06158,-151535192.30122,284681755.04788,41,2,0.09755556925472,3.9172801107405e-06
1.1439558740585,-151145142.10545,283825585.95914,0.0033061036615273,6.1799532069865e-05,-0.0001,0.0032764731408602,0.024506882854544,-151145142.09995,283825585.9651,-151145142.10978,283825585.95148,41,2,0.097545351057383,3.9174191109324e-06
1.14726197772,-150754952.86332,282969671.65558,0.0033360835748578,6.1872720227228e-05,-0.0001,0.0033061036615273,0.024605984198583,-150754952.85784,282969671.66151,-150754952.86763,282969671.64797,41,2,0.097535129751051,3.9175581684314e-06
1.1505980612948,-150364624.37265,282114012.75876,0.0033664179663169,6.1945938586635e-05,-0.0001,0.0033360835748578,0.024705083110473,-150364624.36719,282114012.76465,-150364624.37695,282114012.7512,41,2,0.097524905330569,3.9176972833143e-06
1.1539644792612,-149974156.43534,281258609.88518,0.0033971120095417,6.2019187188582e-05,-0.0001,0.0033664179663169,0.02480417957701,-149974156.4299,281258609.89104,-149974156.43962,281258609.87766,41,2,0.097514677790773,3.917836455658e-06
1.1573615912707,-149583548.85297,280403463.65397,0.0034281709681151,6.2092466073631e-05,-0.0001,0.0033971120095417,0.024903273584881,-149583548.84754,280403463.65978,-149583548.85723,280403463.64649,41,2,0.097504447126497,3.9179756855396e-06
1.1607897622388,-149192801.42683,279548574.68689,0.0034596001973835,6.2165775282407e-05,-0.0001,0.0034281709681151,0.025002365120664,-149192801.42143,279548574.69267,-149192801.43108,279548574.67946,41,2,0.097494213332563,3.9181149730363e-06
1.1642493624362,-148801913.95794,278693943.60842,0.0034914051463144,6.2239114855602e-05,-0.0001,0.0034596001973835,0.025101454170826,-148801913.95255,278693943.61417,-148801913.96217,278693943.60104,41,2,0.097483976403791,3.9182543182253e-06
1.1677407675825,-148410886.247,277839571.04571,0.0035235913593985,6.2312484833972e-05,-0.0001,0.0034914051463144,0.025200540721723,-148410886.24164,277839571.05142,-148410886.25122,277839571.03837,41,2,0.097473736334993,3.9183937211842e-06
1.1712643589419,-148019718.09446,276985457.62863,0.0035561644785941,6.2385885258337e-05,-0.0001,0.0035235913593985,0.025299624759597,-148019718.08911,276985457.6343,-148019718.09866,276985457.62133,41,2,0.097463493120975,3.9185331819905e-06
1.1748205234205,-147628409.30045,276131603.98977,0.0035891302453183,6.245931616958e-05,-0.0001,0.0035561644785941,0.025398706270574,-147628409.29513,276131603.9954,-147628409.30464,276131603.98252,41,2,0.097453246756538,3.9186727007219e-06
1.1784096536658,-147236959.66485,275278010.76447,0.0036224945024834,6.2532777608649e-05,-0.0001,0.0035891302453183,0.025497785240667,-147236959.65954,275278010.77007,-147236959.66902,275278010.75726,41,2,0.097442997236475,3.9188122774561e-06
1.1820321481683,-146845368.98722,274424678.59086,0.0036562631965817,6.2606269616555e-05,-0.0001,0.0036224945024834,0.02559686165577,-146845368.98193,274424678.59642,-146845368.99138,274424678.5837,41,2,0.097432744555574,3.9189519122712e-06
1.1856884113649,-146453637.06689,273571608.10983,0.0036904423798182,6.2679792234371e-05,-0.0001,0.0036562631965817,0.025695935501658,-146453637.06162,273571608.11535,-146453637.07103,273571608.10271,41,2,0.097422488708619,3.919091605245e-06
1.1893788537447,-146061763.70287,272718799.96509,0.0037250382122942,6.2753345503234e-05,-0.0001,0.0036904423798182,0.025795006763989,-146061763.69762,272718799.97058,-146061763.707,272718799.95801,41,2,0.097412229690386,3.9192313564558e-06
1.193103891957,-145669748.69393,271866254.80318,0.0037600569642419,6.2826929464342e-05,-0.0001,0.0037250382122942,0.025894075428296,-145669748.6887,271866254.80863,-145669748.69804,271866254.79614,41,2,0.097401967495646,3.919371165982e-06
1.1968639489212,-145277591.83856,271013973.27347,0.0037955050183124,6.2900544158956e-05,-0.0001,0.0037600569642419,0.025993141479994,-145277591.83335,271013973.27889,-145277591.84265,271013973.26648,41,2,0.097391702119165,3.9195110339017e-06
1.2006594539396,-144885292.93496,270161956.02822,0.0038313888719159,6.2974189628398e-05,-0.0001,0.0037955050183124,0.02609220490437,-144885292.92977,270161956.0336,-144885292.93904,270161956.02127,41,2,0.097381433555704,3.9196509602937e-06
1.2044908428115,-144492851.7811,269310203.72255,0.0038677151396208,6.3047865914051e-05,-0.0001,0.0038313888719159,0.026191265686589,-144492851.77593,269310203.7279,-144492851.78517,269310203.71565,41,2,0.097371161800018,3.9197909452364e-06
1.2083585579511,-144100268.17467,268458717.01451,0.0039044905556071,6.3121573057359e-05,-0.0001,0.0038677151396208,0.026290323811687,-144100268.16951,268458717.01982,-144100268.17871,268458717.00765,41,2,0.097360886846857,3.9199309888087e-06
1.2122630485067,-143707541.91308,267607496.56506,0.0039417219761791,6.3195311099827e-05,-0.0001,0.0039044905556071,0.026389379264572,-143707541.90795,267607496.57034,-143707541.91712,267607496.55824,41,2,0.097350608690966,3.9200710910894e-06
1.2162047704829,-143314672.79354,266756543.03812,0.0039794163823395,6.3269080083019e-05,-0.0001,0.0039417219761791,0.026488432030024,-143314672.78842,266756543.04335,-143314672.79755,266756543.03134,41,2,0.097340327327086,3.9202112521574e-06
1.2201841868652,-142921660.61293,265905857.10056,0.0040175808824238,6.3342880048559e-05,-0.0001,0.0039794163823395,0.02658748209269,-142921660.60784,265905857.10576,-142921660.61694,265905857.09382,41,2,0.097330042749952,3.920351472092e-06
1.2242017677476,-142528505.16795,265055439.42226,0.0040562227147987,6.341671103813e-05,-0.0001,0.0040175808824238,0.026686529437086,-142528505.16287,265055439.42743,-142528505.17194,265055439.41557,41,2,0.097319754954295,3.9204917509722e-06
1.2282579904624,-142135206.255,264205290.67611,0.0040953492506268,6.3490573093473e-05,-0.0001,0.0040562227147987,0.026785574047592,-142135206.24994,264205290.68124,-142135206.25898,264205290.66945,41,2,0.097309463934841,3.9206320888773e-06
1.2323533397131,-141741763.67027,263355411.53801,0.004134967996696,6.3564466256389e-05,-0.0001,0.0040953492506268,0.026884615908454,-141741763.66523,263355411.54311,-141741763.67423,263355411.5314,41,2,0.097299169686312,3.9207724858868e-06
1.2364883077098,-141348177.20969,262505802.68695,0.0041750865983203,6.3638390568735e-05,-0.0001,0.004134967996696,0.02698365500378,-141348177.20466,262505802.69201,-141348177.21363,262505802.68038,41,2,0.097288872203426,3.9209129420803e-06
1.2406633943081,-140954446.66894,261656464.80497,0.0042157128423092,6.3712346072426e-05,-0.0001,0.0041750865983203,0.027082691317538,-140954446.66394,261656464.81,-140954446.67287,261656464.79844,41,2,0.097278571480897,3.9210534575373e-06
1.2448791071504,-140560571.8435,260807398.57721,0.0042568546600106,6.3786332809433e-05,-0.0001,0.0042157128423092,0.027181724833558,-140560571.83851,260807398.58221,-140560571.84741,260807398.57073,41,2,0.097268267513434,3.9211940323376e-06
1.2491359618104,-140166552.52859,259958604.69196,0.0042985201304291,6.3860350821784e-05,-0.0001,0.0042568546600106,0.027280755535524,-140166552.52362,259958604.69692,-140166552.53248,259958604.68551,41,2,0.097257960295744,3.9213346665611e-06
1.2534344819408,-139772388.5192,259110083.84062,0.004340717483419,6.3934400151563e-05,-0.0001,0.0042985201304291,0.027379783406981,-139772388.51426,259110083.84555,-139772388.52308,259110083.83421,41,2,0.097247649822527,3.9214753602877e-06
1.2577751994243,-139378079.61013,258261836.71778,0.0043834551029582,6.4008480840909e-05,-0.0001,0.004340717483419,0.027478808431323,-139378079.6052,258261836.72267,-139378079.61399,258261836.71141,41,2,0.097237336088484,3.9216161135974e-06
1.2621586545272,-138983625.59591,257413864.0212,0.0044267415305016,6.4082592932014e-05,-0.0001,0.0043834551029582,0.027577830591801,-138983625.59101,257413864.02606,-138983625.59976,257413864.01488,41,2,0.097227019088309,3.9217569265705e-06
1.2665853960577,-138589026.2709,256566166.45189,0.0044705854684191,6.4156736467125e-05,-0.0001,0.0044267415305016,0.027676849871515,-138589026.26601,256566166.45672,-138589026.27474,256566166.44561,41,2,0.097216698816694,3.9218977992872e-06
1.2710559815261,-138194281.42921,255718744.71407,0.0045149957835169,6.4230911488543e-05,-0.0001,0.0044705854684191,0.027775866253414,-138194281.42434,255718744.71886,-138194281.43303,255718744.70783,41,2,0.097206375268329,3.9220387318279e-06
1.2755709773097,-137799390.86477,254871599.51523,0.0045599815106496,6.4305118038622e-05,-0.0001,0.0045149957835169,0.027874879720295,-137799390.85992,254871599.51999,-137799390.86857,254871599.50902,41,2,0.097196048437899,3.9221797242731e-06
1.2801309588203,-137404354.37128,254024731.56614,0.004605551856421,6.4379356159768e-05,-0.0001,0.0045599815106496,0.0279738902548,-137404354.36644,254024731.57087,-137404354.37507,254024731.55998,41,2,0.097185718320087,3.9223207767033e-06
1.2847365106767,-137009171.74225,253178141.58091,0.0046517162029775,6.4453625894437e-05,-0.0001,0.004605551856421,0.028072897839415,-137009171.73744,253178141.5856,-137009171.74602,253178141.57478,41,2,0.097175384909576,3.9224618891991e-06
1.2893882268797,-136613842.771,252331830.27694,0.0046984841118988,6.4527927285137e-05,-0.0001,0.0046517162029775,0.028171902456468,-136613842.76621,252331830.28161,-136613842.77476,252331830.27086,41,2,0.097165048201042,3.9226030618415e-06
1.2940867109916,-136218367.25066,251485798.37505,0.0047458653281852,6.4602260374428e-05,-0.0001,0.0046984841118988,0.028270904088126,-136218367.24588,251485798.37968,-136218367.2544,251485798.36901,41,2,0.097154708189163,3.9227442947111e-06
1.2988325763198,-135822744.97415,250640046.5994,0.0047938697843475,6.4676625204916e-05,-0.0001,0.0047458653281852,0.028369902716394,-135822744.96939,250640046.60399,-135822744.97788,250640046.59339,41,2,0.097144364868612,3.9228855878891e-06
1.3036264461041,-135426975.73424,249794575.67758,0.0048425076045984,6.4751021819259e-05,-0.0001,0.0047938697843475,0.028468898323114,-135426975.7295,249794575.68214,-135426975.73795,249794575.67162,41,2,0.097134018234062,3.9230269414563e-06
1.3084689537087,-135031059.32349,248949386.34063,0.004891789109155,6.4825450260162e-05,-0.0001,0.0048425076045984,0.028567890889961,-135031059.31876,248949386.34516,-135031059.32718,248949386.3347,41,2,0.097123668280183,3.923168355494e-06
1.3133607428179,-134634995.5343,248104479.32303,0.0049417248186466,6.4899910570376e-05,-0.0001,0.004891789109155,0.028666880398441,-134634995.5296,248104479.32753,-134634995.53798,248104479.31715,41,2,0.097113315001646,3.9233098300834e-06
1.3183024676365,-134238784.15891,247259855.36279,0.0049923254586388,6.4974402792701e-05,-0.0001,0.0049417248186466,0.028765866829891,-134238784.15423,247259855.36726,-134238784.16258,247259855.35695,41,2,0.097102958393117,3.9234513653059e-06
1.3232947930952,-133842424.9894,246415515.20141,0.0050436019642738,6.5048926969983e-05,-0.0001,0.0049923254586388,0.028864850165477,-133842424.98473,246415515.20584,-133842424.99305,246415515.1956,41,2,0.097092598449264,3.9235929612427e-06
1.3283383950594,-133445917.81766,245571459.58395,0.0050955654850286,6.5123483145109e-05,-0.0001,0.0050436019642738,0.028963830386188,-133445917.81301,245571459.58835,-133445917.8213,245571459.57817,41,2,0.097082235164754,3.9237346179754e-06
1.3334339605445,-133049262.43547,244727689.25903,0.0051482273895988,6.5198071361016e-05,-0.0001,0.0050955654850286,0.029062807472836,-133049262.43084,244727689.2634,-133049262.43909,244727689.2533,41,2,0.097071868534251,3.9238763355857e-06
1.3385821879341,-132652458.63442,243884204.97889,0.0052015992709076,6.527269166068e-05,-0.0001,0.0051482273895988,0.029161781406058,-132652458.62981,243884204.98323,-132652458.63803,243884204.9732,41,2,0.097061498552422,3.924018114155e-06
1.343783787205,-132255506.206,243041007.4994,0.0052556929512464,6.5347344087121e-05,-0.0001,0.0052015992709076,0.029260752166306,-132255506.20141,243041007.50371,-132255506.20959,243041007.49375,41,2,0.09705112521393,3.9241599537653e-06
1.3490394801562,-131858404.94153,242198097.58008,0.0053105204875494,6.5422028683402e-05,-0.0001,0.0052556929512464,0.02935971973385,-131858404.93696,242198097.58436,-131858404.94511,242198097.57446,41,2,0.097040748513441,3.9243018544982e-06
1.3543500006438,-131461154.63223,241355475.98415,0.0053660941768067,6.5496745492624e-05,-0.0001,0.0053105204875494,0.029458684088776,-131461154.62767,241355475.98839,-131461154.63579,241355475.97856,41,2,0.09703036844562,3.9244438164357e-06
1.3597160948206,-131063755.06917,240513143.47852,0.0054224265616192,6.5571494557931e-05,-0.0001,0.0053660941768067,0.029557645210979,-131063755.06463,240513143.48274,-131063755.07271,240513143.47298,41,2,0.097019985005133,3.9245858396598e-06
1.3651385213822,-130666206.0433,239671100.8339,0.0054795304359012,6.5646275922503e-05,-0.0001,0.0054224265616192,0.029656603080167,-130666206.03879,239671100.83808,-130666206.04683,239671100.82839,41,2,0.097009598186647,3.9247279242525e-06
1.3706180518181,-130268507.3455,238829348.82472,0.0055374188507343,6.5721089629561e-05,-0.0001,0.0054795304359012,0.029755557675851,-130268507.341,238829348.82887,-130268507.34901,238829348.81925,41,2,0.09699920798483,3.9248700702959e-06
1.3761554706688,-129870658.76649,237987888.22925,0.0055961051203743,6.579593572236e-05,-0.0001,0.0055374188507343,0.029854508977352,-129870658.76201,237987888.23337,-129870658.76999,237987888.22382,41,2,0.096988814394349,3.9250122778722e-06
1.3817515757892,-129472660.09693,237146719.82961,0.0056556028284215,6.5870814244192e-05,-0.0001,0.0055961051203743,0.029953456963788,-129472660.09247,237146719.83369,-129472660.10041,237146719.82421,41,2,0.096978417409877,3.9251545470637e-06
1.3874071786176,-129074511.12736,236305844.41175,0.0057159258341539,6.5945725238386e-05,-0.0001,0.0056556028284215,0.030052401614081,-129074511.12292,236305844.41581,-129074511.13083,236305844.40639,41,2,0.096968017026084,3.9252968779527e-06
1.3931231044518,-128676211.64827,235465262.76556,0.0057770882790309,6.60206687483e-05,-0.0001,0.0057159258341539,0.030151342906948,-128676211.64384,235465262.76958,-128676211.65172,235465262.76024,41,2,0.096957613237645,3.9254392706215e-06
1.3989001927308,-128277761.45003,234624975.68483,0.0058391045933725,6.609564481733e-05,-0.0001,0.0057770882790309,0.030250280820901,-128277761.44562,234624975.68883,-128277761.45347,234624975.67955,41,2,0.096947206039237,3.9255817251527e-06
1.4047392973242,-127879160.32297,233784983.96736,0.0059019895032172,6.6170653488901e-05,-0.0001,0.0058391045933725,0.030349215334244,-127879160.31858,233784983.97132,-127879160.32639,233784983.96211,41,2,0.09693679542554,3.9257242416286e-06
1.4106412868274,-127480408.05734,232945288.4149,0.0059657580373687,6.6245694806468e-05,-0.0001,0.0059019895032172,0.03044814642507,-127480408.05297,232945288.41883,-127480408.06075,232945288.40969,41,2,0.096926381391234,3.925866820132e-06
1.4166070448648,-127081504.44334,232105889.83326,0.0060304255346309,6.6320768813517e-05,-0.0001,0.0059657580373687,0.030547074071258,-127081504.43899,232105889.83716,-127081504.44674,232105889.82808,41,2,0.096915963931006,3.9260094607454e-06
1.4226374703994,-126682449.27113,231266789.0323,0.0060960076512416,6.639587555356e-05,-0.0001,0.0060304255346309,0.030645998250471,-126682449.26679,231266789.03618,-126682449.27451,231266789.02716,41,2,0.096905543039545,3.9261521635515e-06
1.4287334780506,-126283242.33081,230427986.826,0.0061625203685104,6.6471015070139e-05,-0.0001,0.0060960076512416,0.030744918940154,-126283242.32649,230427986.82984,-126283242.33417,230427986.82089,41,2,0.096895118711543,3.926294928633e-06
1.4348959984192,-125883883.41245,229589484.03245,0.0062299800006651,6.6546187406818e-05,-0.0001,0.0061625203685104,0.030843836117529,-125883883.40815,229589484.03626,-125883883.4158,229589484.02738,41,2,0.096884690941697,3.9264377560727e-06
1.4411259784198,-125484372.30612,228751281.47391,0.0062984032029145,6.6621392607188e-05,-0.0001,0.0062299800006651,0.030942749759592,-125484372.30184,228751281.4777,-125484372.30946,228751281.46888,41,2,0.096874259724709,3.9265806459534e-06
1.4474243816227,-125084708.80185,227913379.97687,0.0063678069797336,6.6696630714861e-05,-0.0001,0.0062984032029145,0.031041659843112,-125084708.79759,227913379.98063,-125084708.80517,227913379.97187,41,2,0.096863825055284,3.926723598358e-06
1.4537921886025,-124684892.68967,227075780.37202,0.0064382086933795,6.6771901773473e-05,-0.0001,0.0063678069797336,0.031140566344627,-124684892.68543,227075780.37575,-124684892.69297,227075780.36706,41,2,0.096853386928135,3.9268666133693e-06
1.4602303972959,-124284923.75961,226238483.49436,0.0065096260726438,6.6847205826679e-05,-0.0001,0.0064382086933795,0.031239469240441,-124284923.75538,226238483.49805,-124284923.7629,226238483.48943,41,2,0.096842945337977,3.9270096910704e-06
1.4667400233685,-123884801.8017,225401490.18317,0.0065820772218485,6.6922542918153e-05,-0.0001,0.0065096260726438,0.03133836850662,-123884801.79749,225401490.18684,-123884801.80497,225401490.17827,41,2,0.096832500279533,3.9271528315442e-06
1.4733221005903,-123484526.60601,224564801.2821,0.0066555806300942,6.6997913091586e-05,-0.0001,0.0065820772218485,0.031437264118991,-123484526.60182,224564801.28574,-123484526.60927,224564801.27724,41,2,0.096822051747533,3.9272960348737e-06
1.4799776812204,-123084097.96263,223728417.63917,0.0067301551807712,6.7073316390684e-05,-0.0001,0.0066555806300942,0.031536156053135,-123084097.95846,223728417.64279,-123084097.96588,223728417.63435,41,2,0.096811599736711,3.927439301142e-06
1.4867078364012,-122683515.66169,222892340.10686,0.0068058201613318,6.7148752859171e-05,-0.0001,0.0067301551807712,0.031635044284389,-122683515.65754,222892340.11044,-122683515.66492,222892340.10207,41,2,0.096801144241809,3.9275826304322e-06
1.4935136565625,-122282779.49336,222056569.54206,0.0068825952733462,6.7224222540781e-05,-0.0001,0.0068058201613318,0.031733928787838,-122282779.48922,222056569.54562,-122282779.49657,222056569.53731,41,2,0.096790685257578,3.9277260228272e-06
1.5003962518359,-121881889.24787,221221106.8062,0.0069605006428413,6.7299725479259e-05,-0.0001,0.0068825952733462,0.031832809538312,-121881889.24375,221221106.80973,-121881889.25107,221221106.80148,41,2,0.096780222778775,3.9278694784103e-06
1.5073567524787,-121480844.71553,220385952.76524,0.0070395568309319,6.7375261718362e-05,-0.0001,0.0069605006428413,0.031931686510387,-121480844.71143,220385952.76874,-121480844.71871,220385952.76055,41,2,0.096769756800165,3.9280129972646e-06
1.5143963093097,-121079645.68672,219551108.28972,0.0071197848447588,6.7450831301852e-05,-0.0001,0.0070395568309319,0.032030559678376,-121079645.68264,219551108.29319,-121079645.68989,219551108.28506,41,2,0.096759287316522,3.9281565794733e-06
1.5215160941544,-120678291.95191,218716574.25479,0.0072012061487404,6.75264342735e-05,-0.0001,0.0071197848447588,0.032129429016328,-120678291.94785,218716574.25824,-120678291.95507,218716574.25017,41,2,0.096748814322629,3.9283002251194e-06
1.5287173003032,-120276783.30168,217882351.5403,0.0072838426761463,6.760207067708e-05,-0.0001,0.0072012061487404,0.032228294498024,-120276783.29763,217882351.54371,-120276783.30482,217882351.53571,41,2,0.096738337813278,3.9284439342862e-06
1.5360011429793,-119875119.5267,217048441.03076,0.0073677168410054,6.7677740556369e-05,-0.0001,0.0072838426761463,0.032327156096975,-119875119.52267,217048441.03414,-119875119.52983,217048441.02621,41,2,0.096727857783271,3.9285877070568e-06
1.5433688598203,-119473300.4178,216214843.61545,0.0074528515503623,6.7753443955146e-05,-0.0001,0.0073677168410054,0.032426013786414,-119473300.41379,216214843.61881,-119473300.42091,216214843.61093,41,2,0.096717374227422,3.9287315435145e-06
1.5508217113707,-119071325.7659,215381560.18845,0.0075392702168872,6.7829180917188e-05,-0.0001,0.0074528515503623,0.032524867539297,-119071325.76191,215381560.19178,-119071325.769,215381560.18397,41,2,0.096706887140552,3.9288754437424e-06
1.5583609815876,-118669195.36212,214548591.64865,0.0076269967718539,6.7904951486269e-05,-0.0001,0.0075392702168872,0.032623717328296,-118669195.35814,214548591.65196,-118669195.3652,214548591.6442,41,2,0.096696396517496,3.9290194078236e-06
1.5659879783594,-118266908.99769,213715938.89984,0.0077160556784989,6.7980755706158e-05,-0.0001,0.0076269967718539,0.032722563125795,-118266908.99373,213715938.90312,-118266909.00075,213715938.89542,41,2,0.096685902353101,3.9291634358414e-06
1.5737040340379,-117864466.46404,212883602.85071,0.0078064719457748,6.8056593620619e-05,-0.0001,0.0077160556784989,0.032821404903887,-117864466.4601,212883602.85396,-117864466.46709,212883602.84632,41,2,0.096675404642223,3.9293075278789e-06
1.5815105059837,-117461867.55278,212051584.41493,0.0078982711425059,6.8132465273405e-05,-0.0001,0.0078064719457748,0.032920242634372,-117461867.54886,212051584.41815,-117461867.55582,212051584.41057,41,2,0.096664903379735,3.9294516840192e-06
1.5894087771262,-117059112.05572,211219884.51118,0.007991479411965,6.820837070826e-05,-0.0001,0.0078982711425059,0.033019076288747,-117059112.05182,211219884.51438,-117059112.05874,211219884.50686,41,2,0.096654398560519,3.9295959043454e-06
1.5974002565382,-116656199.76488,210388504.06321,0.0080861234868854,6.8284309968913e-05,-0.0001,0.007991479411965,0.033117905838208,-116656199.761,210388504.06638,-116656199.76789,210388504.05892,41,2,0.096643890179475,3.9297401889407e-06
1.605486380025,-116253130.47251,209557443.99987,0.0081822307049162,6.8360283099079e-05,-0.0001,0.0080861234868854,0.033216731253641,-116253130.46864,209557444.00301,-116253130.4755,209557443.99561,41,2,0.096633378231512,3.929884537888e-06
1.61366861073,-115849903.97109,208726705.25515,0.0082798290245431,6.8436290142455e-05,-0.0001,0.0081822307049162,0.033315552505622,-115849903.96724,208726705.25826,-115849903.97407,208726705.25092,41,2,0.096622862711559,3.9300289512704e-06
1.6219484397545,-115446520.05335,207896288.76827,0.0083789470414858,6.8512331142718e-05,-0.0001,0.0082798290245431,0.033414369564406,-115446520.04952,207896288.77136,-115446520.05632,207896288.76408,41,2,0.096612343614556,3.9301734291709e-06
1.630327386796,-115042978.51233,207066195.48368,0.0084796140055947,6.8588406143524e-05,-0.0001,0.0083789470414858,0.03351318239993,-115042978.50851,207066195.48674,-115042978.51528,207066195.47952,41,2,0.096601820935463,3.9303179716724e-06
1.6388070008016,-114639279.14129,206236426.35115,0.0085818598382486,6.8664515188502e-05,-0.0001,0.0084796140055947,0.033611990981803,-114639279.1375,206236426.35419,-114639279.14423,206236426.34702,41,2,0.096591294669253,3.9304625788579e-06
1.6473888606398,-114235421.73385,205406982.3258,0.0086857151502926,6.8740658321256e-05,-0.0001,0.0085818598382486,0.033710795279304,-114235421.73007,205406982.32881,-114235421.73677,205406982.3217,41,2,0.096580764810917,3.9306072508101e-06
1.6560745757901,-113831406.0839,204577864.36815,0.0087912112605143,6.881683558536e-05,-0.0001,0.0086857151502926,0.033809595261375,-113831406.08014,204577864.37113,-113831406.08681,204577864.36408,41,2,0.096570231355465,3.9307519876119e-06
1.6648657870506,-113427231.98569,203749073.44417,0.0088983802146892,6.8893047024356e-05,-0.0001,0.0087912112605143,0.033908390896618,-113427231.98194,203749073.44712,-113427231.98858,203749073.44013,41,2,0.096559694297925,3.930896789346e-06
1.6737641672653,-113022899.2338,202920610.52535,0.0090072548052103,6.8969292681749e-05,-0.0001,0.0088983802146892,0.034007182153289,-113022899.23008,202920610.52828,-113022899.23668,202920610.52135,41,2,0.096549153633342,3.9310416560951e-06
1.6827714220705,-112618407.6232,202092476.58875,0.009117868591322,6.904557260101e-05,-0.0001,0.0090072548052103,0.034105968999292,-112618407.61949,202092476.59166,-112618407.62606,202092476.58478,41,2,0.096538609356782,3.9311865879417e-06
1.6918892906619,-112213756.94921,201264672.61704,0.0092302559199802,6.9121886825567e-05,-0.0001,0.009117868591322,0.034204751402177,-112213756.94551,201264672.61992,-112213756.95205,201264672.6131,41,2,0.096528061463333,3.9313315849683e-06
1.7011195465818,-111808947.00756,200437199.59856,0.0093444519473593,6.9198235398807e-05,-0.0001,0.0092302559199802,0.034303529329131,-111808947.00389,200437199.60141,-111808947.0104,200437199.59464,41,2,0.096517509948101,3.9314766472575e-06
1.7104639985292,-111403977.59442,199610058.52738,0.0094604926610343,6.9274618364068e-05,-0.0001,0.0093444519473593,0.034402302746976,-111403977.59077,199610058.53021,-111403977.59724,199610058.5235,41,2,0.096506954806214,3.9316217748915e-06
1.7199244911902,-110998848.50638,198783250.40337,0.0095784149028498,6.9351035764642e-05,-0.0001,0.0094604926610343,0.034501071622158,-110998848.50274,198783250.40617,-110998848.50919,198783250.39952,41,2,0.096496396032825,3.9317669679526e-06
1.7295029060931,-110593559.54047,197956776.23222,0.0096982563925117,6.9427487643767e-05,-0.0001,0.0095784149028498,0.03459983592075,-110593559.53685,197956776.235,-110593559.54326,197956776.2284,41,2,0.096485833623108,3.9319122265229e-06
1.7392011624856,-110188110.49423,197130637.02556,0.009820055751923,6.9503974044628e-05,-0.0001,0.0096982563925117,0.034698595608438,-110188110.49062,197130637.02832,-110188110.497,197130637.02177,41,2,0.09647526757226,3.9320575506845e-06
1.7490212182375,-109782501.16565,196304833.80095,0.0099438525302867,6.9580495010348e-05,-0.0001,0.009820055751923,0.034797350650518,-109782501.16207,196304833.80368,-109782501.16842,196304833.79719,41,2,0.096464697875504,3.9322029405194e-06
1.7589650707678,-109376731.35328,195479367.58199,0.01006968723001,6.9657050583992e-05,-0.0001,0.0099438525302867,0.034896101011895,-109376731.34971,195479367.58469,-109376731.35603,195479367.57826,41,2,0.09645412452809,3.9323483961093e-06
1.7690347579978,-108970800.85619,194654239.39835,0.010197601333429,6.9733640808559e-05,-0.0001,0.01006968723001,0.034994846657067,-108970800.85263,194654239.40103,-108970800.85892,194654239.39465,41,2,0.09644354752529,3.932493917536e-06
1.7792323593312,-108564709.47398,193829450.28586,0.010327637330399,6.9810265726979e-05,-0.0001,0.010197601333429,0.035093587550129,-108564709.47044,193829450.28852,-108564709.4767,193829450.28219,41,2,0.096432966862406,3.932639504881e-06
1.7895599966616,-108158457.00687,193005001.28657,0.010459838746759,6.9886925382111e-05,-0.0001,0.010327637330399,0.035192323654759,-108158457.00335,193005001.2892,-108158457.00957,193005001.28293,41,2,0.096422382534768,3.9327851582258e-06
1.8000198354084,-107752043.25565,192180893.44878,0.010594250173724,6.9963619816737e-05,-0.0001,0.010459838746759,0.035291054934217,-107752043.25215,192180893.45139,-107752043.25834,192180893.44517,41,2,0.096411794537733,3.9329308776516e-06
1.8106140855821,-107345468.02175,191357127.82716,0.010730917298224,7.0040349073562e-05,-0.0001,0.010594250173724,0.035389781351336,-107345468.01827,191357127.82974,-107345468.02443,191357127.82357,41,2,0.096401202866688,3.9330766632395e-06
1.8213450028804,-106938731.10725,190533705.48275,0.010869886934234,7.0117113195206e-05,-0.0001,0.010730917298224,0.035488502868513,-106938731.10378,190533705.48531,-106938731.10991,190533705.4792,41,2,0.096390607517052,3.9332225150706e-06
1.8322148898146,-106531832.31488,189710627.48311,0.011011207055125,7.0193912224206e-05,-0.0001,0.010869886934234,0.035587219447709,-106531832.31143,189710627.48564,-106531832.31753,189710627.47958,41,2,0.096380008484273,3.9333684332257e-06
1.8432260968697,-106124771.44809,188887894.9023,0.011154926827069,7.0270746203004e-05,-0.0001,0.011011207055125,0.035685931050434,-106124771.44466,188887894.90481,-106124771.45073,188887894.8988,41,2,0.096369405763833,3.9335144177855e-06
1.8543810236968,-105717548.31103,188065508.82103,0.011301096643558,7.034761517395e-05,-0.0001,0.011154926827069,0.035784637637747,-105717548.30762,188065508.82352,-105717548.31365,188065508.81756,41,2,0.096358799351247,3.9336604688303e-06
1.8656821203403,-105310162.70861,187243470.32666,0.011449768161048,7.0424519179295e-05,-0.0001,0.011301096643558,0.035883339170244,-105310162.70521,187243470.32913,-105310162.71122,187243470.32322,41,2,0.096348189242064,3.9338065864404e-06
1.8771318885014,-104902614.4465,186421780.51334,0.011600994335793,7.0501458261186e-05,-0.0001,0.011449768161048,0.035982035608052,-104902614.44312,186421780.51578,-104902614.44909,186421780.50993,41,2,0.096337575431867,3.933952770696e-06
1.8887328828372,-104494903.33118,185600440.48202,0.011754829461906,7.0578432461664e-05,-0.0001,0.011600994335793,0.036080726910823,-104494903.32781,185600440.48444,-104494903.33375,185600440.47864,41,2,0.096326957916277,3.9340990216769e-06
1.9004877122991,-104087029.16994,184779451.34057,0.011911329210691,7.0655441822658e-05,-0.0001,0.011754829461906,0.036179413037725,-104087029.16659,184779451.34296,-104087029.1725,184779451.33721,41,2,0.096316336690952,3.9342453394628e-06
1.9123990415098,-103678991.77093,183958814.20383,0.012070550671294,7.073248638598e-05,-0.0001,0.011911329210691,0.036278093947434,-103678991.7676,183958814.2062,-103678991.77348,183958814.2005,41,2,0.096305711751588,3.9343917241331e-06
1.9244695921811,-103270790.94321,183138530.1937,0.012232552392727,7.0809566193322e-05,-0.0001,0.012070550671294,0.036376769598127,-103270790.93989,183138530.19605,-103270790.94574,183138530.19041,41,2,0.09629508309392,3.9345381757671e-06
1.9367021445738,-102862426.4967,182318600.43923,0.012397394427316,7.088668128625e-05,-0.0001,0.012232552392727,0.036475439947474,-102862426.4934,182318600.44155,-102862426.49922,182318600.43596,41,2,0.096284450713725,3.9346846944436e-06
1.9490995390011,-102453898.2423,181499026.07665,0.012565138375621,7.09638317062e-05,-0.0001,0.012397394427316,0.036574104952628,-102453898.23902,181499026.07895,-102453898.24481,181499026.0734,41,2,0.09627381460682,3.9348312802415e-06
1.9616646773767,-102045205.99188,180679808.2495,0.012735847432888,7.1041017494472e-05,-0.0001,0.012565138375621,0.036672764570219,-102045205.98862,180679808.25178,-102045205.99438,180679808.24629,41,2,0.096263174769067,3.9349779332393e-06
1.9744005248096,-101636349.5583,179860948.10872,0.012909586437104,7.1118238692226e-05,-0.0001,0.012735847432888,0.036771418756342,-101636349.55505,179860948.11097,-101636349.56078,179860948.10553,41,2,0.096252531196369,3.935124653515e-06
1.9873101112467,-101227328.75546,179042446.81267,0.01308642191869,7.1195495340477e-05,-0.0001,0.012909586437104,0.036870067466554,-101227328.75223,179042446.8149,-101227328.75792,179042446.8095,41,2,0.096241883884678,3.9352714411467e-06
2,-100830599.42904,178249196.56266,0.013268070751241,7.1270430959613e-05,-0.0001,0.012689888753274,0.036965709771979,-100830599.42583,178249196.56488,-100830599.43149,178249196.55952,41,2,0.096231555477881,3.935413818823e-06
