time,avg_hydro,avg_vonmises,disp_x,disp_y,dt,lps_eff_creep_strain,max_hydro,max_vonmises,min_hydro,min_vonmises,porosity
0.02,4725104.8296032,9676624.7277206,-8.6277434924208e-07,2e-06,0.005,7.4872890976719e-06,4725104.8305336,9676624.7297528,4725104.8286783,9676624.7262324,0.10000090668516
0.04,9090304.1447424,18465970.802779,-1.7889679192563e-06,4e-06,0.005,9.1829351342826e-05,9090304.1503017,18465970.821099,9090304.1312561,18465970.75475,0.10001105353823
